LAMMPS (30 Jul 2021)
Processor partition = 1
  using 2 OpenMP thread(s) per MPI task
using multi-threaded neighbor list subroutines
variable        pid world 0 1
variable        phase world IceII IceVI

shell cd ${phase}
shell cd IceVI
include Restart.lmp
echo both
log log.lammps
#include		in.partitions
include		in.temp
variable        temperature equal 2.99
variable	tempDamp equal 100.0
include		in.pressure
variable        pressure equal 9163.7
variable        pressureDamp equal 1000.0 # This is 1 ps
include		in.seed
variable        seed equal 745823

units		real
atom_style	full
read_restart	restart.lmp.${pid}
read_restart	restart.lmp.1
Reading restart file ...
  restart file = 30 Jul 2021, LAMMPS = 30 Jul 2021
  restoring atom style full from restart
  orthogonal box = (0.094975243 0.067131392 0.096617216) to (24.635026 24.662870 22.713383)
  4 by 4 by 2 MPI processor grid
  restoring pair style lj/cut/tip4p/long/omp from restart
  restoring bond style harmonic/omp from restart
  restoring angle style harmonic/omp from restart
  1920 atoms
  1280 bonds
  640 angles
Finding 1-2 1-3 1-4 neighbors ...
  special bond factors lj:    0        0        0       
  special bond factors coul:  0        0        0       
     2 = max # of 1-2 neighbors
     1 = max # of 1-3 neighbors
     1 = max # of 1-4 neighbors
     2 = max # of special neighbors
  special bonds CPU = 0.002 seconds
  read_restart CPU = 0.014 seconds
include 	in.setup
variable	out_freq equal 1000
variable	out_freq2 equal 10000
variable	out_freq3 equal 1000

timestep	2.0

neigh_modify    delay 7 every 1

include		in.tip4p
# This is TIP4P/Ice

# create groups ###
group ox type 2
640 atoms in group ox
group hy type 1
1280 atoms in group hy

# set charges - beside manually ###
set group ox charge -1.1794
Setting atom values ...
  640 settings made for charge
set group hy charge 0.5897
Setting atom values ...
  1280 settings made for charge

# ### TIP3P Potential Parameters ###
pair_style lj/cut/tip4p/long/omp 2 1 1 1 0.1577 8.5
pair_coeff 1 1*2 0.000 0.000
pair_coeff 2 2 0.21084 3.1668
bond_style  harmonic
bond_coeff  1 450 0.9572
angle_style harmonic
angle_coeff 1 55 104.52
kspace_style pppm/tip4p/omp 1.0e-5
pair_modify tail yes

thermo          ${out_freq}
thermo          1000
thermo_style    custom step temp pe etotal epair emol press lx ly lz vol pxx pyy pzz pxy pxz pyz enthalpy

restart 	${out_freq3} restart.lmp.${pid} restart2.lmp.${pid}
restart 	1000 restart.lmp.${pid} restart2.lmp.${pid}
restart 	1000 restart.lmp.1 restart2.lmp.${pid}
restart 	1000 restart.lmp.1 restart2.lmp.1


include         in.dump
dump            myDump all atom ${out_freq2} dump.water.${pid}
dump            myDump all atom 10000 dump.water.${pid}
dump            myDump all atom 10000 dump.water.1
dump            myDump2 all dcd ${out_freq2} dump.dcd
dump            myDump2 all dcd 10000 dump.dcd
dump_modify     myDump append yes
dump_modify     myDump2 append yes


variable natoms 	equal  "count(all)"                        # NUMBER ATOMS
variable H      	equal  "enthalpy/v_natoms"                 # ENTHALPY-per-atom
variable Vol      	equal  "vol/v_natoms"                 # volume-per-atom
fix AVG all 		ave/time ${out_freq} 1 ${out_freq} v_Vol v_H file vol_enthalpy.dat
fix AVG all 		ave/time 1000 1 ${out_freq} v_Vol v_H file vol_enthalpy.dat
fix AVG all 		ave/time 1000 1 1000 v_Vol v_H file vol_enthalpy.dat




fix 		1 all shake 1e-6 200 0 b 1 a 1
Finding SHAKE clusters ...
       0 = # of size 2 clusters
       0 = # of size 3 clusters
       0 = # of size 4 clusters
     640 = # of frozen angles
  find clusters CPU = 0.001 seconds
fix             2 all nph aniso ${pressure} ${pressure} ${pressureDamp}
fix             2 all nph aniso 9163.7 ${pressure} ${pressureDamp}
fix             2 all nph aniso 9163.7 9163.7 ${pressureDamp}
fix             2 all nph aniso 9163.7 9163.7 1000
fix             3 all temp/csvr ${temperature} ${temperature} ${tempDamp} ${seed}
fix             3 all temp/csvr 2.99 ${temperature} ${tempDamp} ${seed}
fix             3 all temp/csvr 2.99 2.99 ${tempDamp} ${seed}
fix             3 all temp/csvr 2.99 2.99 100 ${seed}
fix             3 all temp/csvr 2.99 2.99 100 745823


run             250000
PPPM initialization ...
  extracting TIP4P info from pair style
  using 12-bit tables for long-range coulomb (../kspace.cpp:340)
  G vector (1/distance) = 0.37569065
  grid = 30 30 30
  stencil order = 5
  estimated absolute RMS force accuracy = 0.0031291598
  estimated relative force accuracy = 9.4233717e-06
  using double precision FFTW3
  3d grid and FFT values/proc = 5400 960
Last active /omp style is kspace_style pppm/tip4p/omp
Neighbor list info ...
  update every 1 steps, delay 7 steps, check yes
  max neighbors/atom: 2000, page size: 100000
  master list distance cutoff = 10.8154
  ghost atom cutoff = 10.8154
  binsize = 5.4077, bins = 5 5 5
  1 neighbor lists, perpetual/occasional/extra = 1 0 0
  (1) pair lj/cut/tip4p/long/omp, perpetual
      attributes: half, newton on, omp
      pair build: half/bin/newton/omp
      stencil: half/bin/3d
      bin: standard
Setting up Verlet run ...
  Unit style    : real
  Current step  : 15500000
  Time step     : 2
Per MPI rank memory allocation (min/avg/max) = 10.57 | 10.57 | 10.58 Mbytes
Step Temp PotEng TotEng E_pair E_mol Press Lx Ly Lz Volume Pxx Pyy Pzz Pxy Pxz Pyz Enthalpy 
15500000    5.3791537   -10128.674   -10108.166   -10128.674            0    9208.3294    24.540051    24.595738    22.616766    13651.042    9319.9988    9039.3677    9265.6218    20.897748   -117.22716   -53.194974   -8274.9124 
15501000    3.0287755   -10138.079   -10126.532   -10138.079            0    9144.8174    24.538987    24.595997    22.607904    13645.246    9258.8705    9094.1089    9081.4727   -280.22368   -124.10742    145.46477   -8306.6955 
15502000    3.1064675   -10138.642   -10126.798   -10138.642            0    9204.5028    24.528743    24.603128    22.607985    13643.553    9351.5678    9069.6735    9192.2672    -136.8309   -226.58234    134.99807   -8295.3119 
15503000    2.9974513   -10138.186   -10126.758   -10138.186            0    9180.2951    24.530021    24.596928    22.612741    13643.695    9220.1772    9059.0609    9261.6472   -185.46022   -211.03251    245.14795   -8300.0698 
15504000    2.9536758   -10138.633   -10127.372   -10138.633            0    9190.2842    24.518066    24.606041    22.616748    13644.516     9345.133    9051.1461    9174.5737   -203.86224   -203.00109    134.08157   -8298.5861 
15505000    3.0559993   -10138.073   -10126.422   -10138.073            0    9216.8681    24.520285     24.60973     22.60967    13643.525    9381.9364    9002.8026    9265.8653   -193.71106   -208.08994     281.4155   -8292.4786 
15506000    3.0310271   -10137.804   -10126.248   -10137.804            0    9123.9012    24.524124    24.601209    22.619724    13647.003     9237.662    8992.3697    9141.6717   -70.496365   -128.38486    160.92104   -8310.3406 
15507000    2.9335859   -10138.009   -10126.825   -10138.009            0    9148.0249    24.526389    24.601221    22.613646    13644.601     9223.947    9087.4626    9132.6651   -153.21205   -158.60465   -53.742627   -8306.4363 
15508000    2.8547338   -10138.208   -10127.324   -10138.208            0     9198.716    24.526063    24.611197    22.604109    13644.197    9310.1817    8986.7054     9299.261   -220.46533   -184.31598    160.99653   -8296.9031 
15509000    3.0000908   -10137.654   -10126.216   -10137.654            0    9151.3921    24.506656    24.613097     22.62296    13645.824      9435.95    8903.2449    9114.9814   -199.39842   -344.28581    280.50453   -8304.9947 
15510000    2.9689034   -10138.457   -10127.138   -10138.457            0    9119.1482    24.512013    24.616584    22.617132    13647.224    9297.0212    8929.3002    9131.1231   -136.05398   -308.91953    110.35809   -8312.1473 
15511000    2.9187766   -10138.303   -10127.175   -10138.303            0    9146.0315    24.518099    24.602483    22.624946    13647.505    9292.9061     9016.639    9128.5493   -53.991107   -186.45698    268.94109   -8306.7959 
15512000    3.1118612   -10138.411   -10126.547   -10138.411            0    9206.8421    24.520853    24.600117     22.61902    13644.152    9407.6383    9139.0585    9073.8295   -177.46783    -268.0983    6.6364332   -8294.5144 
15513000    3.0196691   -10138.346   -10126.834   -10138.346            0    9161.4389    24.525653    24.597751    22.620247     13646.25    9311.1491    9083.5637    9089.6039   -182.86192   -172.66557    219.76598   -8303.5559 
15514000    2.8319381   -10137.855   -10127.058   -10137.855            0     9194.837    24.519204    24.596326    22.624049    13644.164    9340.4226    9058.5821    9185.5062   -161.68959   -220.10394    35.707189   -8297.4129 
15515000    3.0258468   -10138.828   -10127.292   -10138.828            0    9140.4671     24.54087    24.588759    22.613078    13645.399     9153.451    9142.8308    9125.1194   -234.14231   -173.14625    273.50147   -8308.3014 
15516000    3.0826921   -10138.567   -10126.814   -10138.567            0    9168.1591    24.534141    24.603271    22.605924     13645.39     9251.814    9069.2744     9183.389   -239.78959   -158.57584    58.067162   -8302.3134 
15517000    2.9957635   -10138.171    -10126.75   -10138.171            0    9195.8154    24.531333     24.58968    22.619569    13644.522      9253.54    9161.5447    9172.3615   -127.01628   -274.62167    8.7025525   -8296.8622 
15518000     2.956935   -10138.361   -10127.087   -10138.361            0     9161.744    24.544253    24.595148    22.604247    13645.495    9151.5351     9107.579     9226.118   -84.092065   -210.20043    333.15813   -8303.8494 
15519000    2.9881416   -10137.976   -10126.584   -10137.976            0    9208.9413    24.539104    24.581046    22.620392    13644.549    9229.4783    9141.1898    9256.1557   -259.34343   -215.89117    118.45782   -8294.0801 
15520000    3.0070436   -10138.838   -10127.374   -10138.838            0     9162.052    24.547166    24.574033    22.620688    13645.316    9161.2095    9182.0449    9142.9018   -129.86541   -81.347186    206.89985   -8304.0985 
15521000    2.9394105   -10138.052   -10126.846   -10138.052            0    9122.3358     24.54093    24.575192    22.627645    13646.689    9244.4743    9174.4741    8948.0591    -124.2963   -190.44491    237.70931   -8311.2913 
15522000    3.0719807   -10138.676   -10126.965   -10138.676            0    9175.2658    24.549008    24.571497    22.622269    13645.886    9134.8229    9154.2163     9236.758   -163.19024   -92.848875    53.319541   -8300.9834 
15523000    2.9826251   -10138.586   -10127.215   -10138.586            0    9183.7377    24.560749    24.579575    22.601014    13644.069    9081.0955    9150.1995    9319.9181   -209.68348    -95.68218    123.42385   -8299.7914 
15524000    3.0993502   -10138.325   -10126.509   -10138.325            0    9175.2798    24.560762    24.572683    22.609441    13645.336    9061.2546    9242.3308    9222.2538   -206.81207   -127.88367    187.76371   -8300.5985 
15525000    3.0441675   -10138.631   -10127.026   -10138.631            0    9120.1424    24.563122    24.566603    22.614311     13646.21    9050.7543    9199.6944    9109.9785   -156.35427   -153.99827    222.18596   -8311.9717 
15526000    3.0614507   -10137.666   -10125.995   -10137.666            0     9189.775    24.563373    24.563372    22.612581     13643.51    9104.6257    9338.7948    9125.9044   -180.09215   -199.14893     77.87621   -8297.4445 
15527000     2.949622    -10138.38   -10127.135    -10138.38            0     9144.207    24.579156    24.553921    22.611311    13646.258    8961.6216    9296.8689    9174.1305   -72.432313    -86.12538    170.79837   -8307.2856 
15528000     3.009019   -10138.426   -10126.955   -10138.426            0    9154.8826    24.563625    24.560876    22.617675    13645.337    9024.0637    9185.9974    9254.5868   -153.42635   -219.62797     149.7605   -8305.1033 
15529000    2.8767242   -10138.363   -10127.396   -10138.363            0    9182.1224     24.58218     24.55492    22.603864    13643.997    8980.5042    9349.0652    9216.7979   -199.76479   -192.47925    172.85691   -8300.3032 
15530000    3.0432944   -10137.985   -10126.383   -10137.985            0    9194.4462    24.572319     24.54699    22.619876    13643.777    9059.5346    9350.1079    9173.6961   -145.24128   -145.55755    212.97735   -8296.8674 
15531000    2.9704378    -10137.97   -10126.646    -10137.97            0    9160.1632    24.577407     24.55319    22.614121    13646.576    8984.1798    9340.6056    9155.7043   -93.122102   -25.354546     50.87346    -8303.578 
15532000    3.0168747   -10138.307   -10126.806   -10138.307            0    9108.4479    24.577766    24.550392     22.61764    13647.344    9009.8931    9239.3344    9076.1163   -211.79481   -185.37436    45.439783   -8313.9283 
15533000    3.0193314   -10138.582   -10127.071   -10138.582            0    9162.2842    24.576948    24.553839    22.615394     13647.45    9045.9877    9270.9492    9169.9155   -64.656125   -163.20675    192.87477   -8303.4647 
15534000    2.9099153   -10138.592   -10127.498   -10138.592            0    9159.3239    24.574285    24.543594    22.624361    13645.685    9044.4212    9338.5402    9095.0102    -130.5117   -317.31637    251.53871   -8304.7165 
15535000    2.9397697   -10138.409   -10127.201   -10138.409            0    9172.6988     24.57457    24.557464    22.607932    13643.641    8998.6909    9340.6964    9178.7092   -97.231592   -264.23518    255.90773   -8302.0315 
15536000    2.9486295   -10137.949   -10126.708   -10137.949            0     9189.806     24.56997    24.550226    22.618925    13643.698    9062.5513    9281.3912    9225.4756   -180.10933   -84.958072    57.402157   -8298.1261 
15537000    3.0135394   -10138.641   -10127.152   -10138.641            0    9163.9953    24.573523    24.554048    22.615766    13645.888    9036.2331    9273.0654    9182.6875   -155.19737    -332.8413    1.3464639   -8303.4132 
15538000    3.0461092   -10138.462   -10126.848   -10138.462            0    9139.3956     24.55712    24.560584    22.626199    13646.703    9043.1862    9285.8186    9089.1818   -153.41351   -145.76656    131.85257   -8307.8969 
15539000    2.9593958   -10138.712    -10127.43   -10138.712            0    9157.4171    24.569621    24.567061    22.607035    13645.683    9098.9189    9228.0979    9145.2346   -107.36717   -305.40649     186.2908   -8305.0278 
15540000    2.9871289   -10138.278    -10126.89   -10138.278            0    9138.9474    24.557606    24.570396    22.612886    13644.392    9153.9448    9170.5038    9092.3934   -233.53309   -293.88074    50.803625   -8308.3357 
15541000    2.9371485   -10138.515   -10127.317   -10138.515            0    9178.5058    24.564267    24.568852    22.608333    13644.487    9061.9298    9256.4267     9217.161   -120.81063   -126.00951    69.237625   -8300.8783 
15542000    2.9826121   -10138.215   -10126.843   -10138.215            0    9203.0865    24.556116    24.565607    22.616493    13643.081    9147.9404     9218.939    9242.3802   -123.99847    -119.2039     112.2025   -8295.7023 
15543000    3.0713561   -10138.484   -10126.775   -10138.484            0    9124.4452    24.554638    24.584157    22.605134    13645.704    9067.9472    9137.4474    9167.9411   -162.20742   -202.57337    130.20314   -8310.9316 
15544000    3.0689881   -10138.757   -10127.057   -10138.757            0    9128.5577    24.557847     24.57462    22.612201    13646.459    9020.1971    9214.9028    9150.5733   -116.04642   -107.62613    197.13701   -8310.2951 
15545000    2.9034411   -10138.844   -10127.775   -10138.844            0    9164.5274     24.53968    24.579697    22.623036    13645.715    9179.2382    9218.0114    9096.3327   -125.33996   -191.50042    145.92349   -8303.9538 
15546000    3.0957224   -10137.959   -10126.157   -10137.959            0    9160.4967    24.554125    24.579586    22.609505     13645.52     9084.632    9140.1305    9256.7276   -204.63104   -257.99277    150.27544   -8303.1638 
15547000    2.9741344   -10138.365   -10127.026   -10138.365            0    9143.3311    24.535146    24.590627    22.616274    13645.181    9212.1029    9063.0695     9154.821   -97.554505   -131.67147    106.76741    -8307.494 
15548000    2.8819408    -10138.36   -10127.373    -10138.36            0    9153.0446    24.535304    24.586255    22.622743    13646.746    9149.6235     9124.021    9185.4894   -174.26172    -320.2937    60.115026   -8305.6994 
15549000     3.073808   -10138.158    -10126.44   -10138.158            0    9199.2888    24.524664    24.589005    22.626124    13644.391    9301.2025    9120.7657    9175.8982    -67.70946   -136.94744    134.85557    -8295.878 
15550000    3.0698455   -10138.521   -10126.817   -10138.521            0    9129.2039    24.534598    24.603205    22.608167    13646.962    9204.1566    8976.4382    9207.0168   -209.93374   -264.74846     222.8363   -8309.8598 
15551000    2.9316575   -10137.577     -10126.4   -10137.577            0    9195.6525    24.519299    24.602881    22.616449    13643.269    9351.5993    9078.5461    9156.8121      -131.93    -340.0469    51.170449   -8296.7131 
15552000    3.0256724   -10137.981   -10126.446   -10137.981            0    9146.6426    24.519657    24.613562    22.611583    13646.455    9308.5729    8970.6581    9160.6967   -140.95306   -179.75596    14.342559    -8306.085 
15553000    2.9356739   -10138.363   -10127.171   -10138.363            0     9155.456    24.530625     24.60011    22.613348    13646.162    9246.9668    9033.9576    9185.4435   -6.2768818   -284.34665    121.44182   -8305.0957 
15554000    2.9472757   -10138.083   -10126.846   -10138.083            0    9170.8493    24.520376    24.602695    22.618566    13645.042     9307.334    9057.4452    9147.7688   -100.85058   -110.45702    54.023334   -8301.8569 
15555000     3.022606   -10138.354   -10126.831   -10138.354            0    9080.6077    24.518605     24.60489    22.624218    13648.684    9264.7292    8962.8695    9014.2243    -83.65143   -264.09123    46.467913    -8319.317 
15556000    3.0102297   -10137.901   -10126.425   -10137.901            0    9138.3924    24.525854    24.614403    22.601939    13644.547    9230.7659    8985.5668    9198.8445   -162.54663   -284.98751   -1.8389492   -8307.9604 
15557000    2.9952494   -10138.337   -10126.917   -10138.337            0    9162.7607    24.526345    24.604024    22.613204    13645.865     9298.292    9085.7452     9104.245   -260.51849   -323.62885    162.06753   -8303.4277 
15558000    2.8957403   -10137.166   -10126.126   -10137.166            0    9216.0433    24.520104    24.598033    22.617726    13641.798    9350.8783    9148.4587    9148.7929   -152.43081   -292.92232    242.15722   -8292.5793 
15559000    2.8918206    -10137.88   -10126.855    -10137.88            0       9195.2    24.518652    24.601245    22.618071     13642.98    9306.9511    9132.2016    9146.4473   -38.491219   -201.26241    167.07214    -8297.296 
15560000    3.0015571    -10139.26   -10127.817    -10139.26            0    9128.4214    24.536557     24.60523    22.603857    13646.572    9188.5089    9001.1745    9195.5808   -345.20322   -186.56524   -13.545932   -8311.0669 
15561000    2.8988971   -10138.445   -10127.393   -10138.445            0    9161.1228     24.52353     24.61084    22.608922    13645.494    9228.0108    9002.4246     9252.933   -112.47419   -78.670751   -12.358393    -8304.279 
15562000    2.9351966   -10138.296   -10127.106   -10138.296            0    9181.6782    24.521002     24.61124    22.610114    13645.029    9385.1825    9038.2489    9121.6032   -131.57626   -206.89932    42.153766   -8299.9634 
15563000      3.12338    -10137.76   -10125.852    -10137.76            0    9180.0178    24.531324    24.598715    22.609799    13643.635     9252.789    9137.7488    9149.5156   -135.96841    -272.4246    136.32918   -8299.2265 
15564000    3.0408341   -10138.246   -10126.653   -10138.246            0    9178.0541    24.541498    24.596072    22.604791    13644.805    9215.1585    9099.3856    9219.6181   -81.315713   -170.14525    107.46074   -8300.2617 
15565000     2.850975   -10138.758   -10127.888   -10138.758            0     9146.069    24.531711     24.59922    22.614539    13646.992    9235.2602    9064.7392    9138.2074   -200.75059   -426.04579    229.65971   -8307.5703 
15566000    3.1660499   -10137.899   -10125.828   -10137.899            0    9178.1178    24.538055     24.59223    22.608793    13643.174    9289.1761     9051.894    9193.2832   -82.299026   -158.34233    41.978817   -8299.6426 
15567000    2.9706569   -10138.749   -10127.424   -10138.749            0    9163.8848    24.537955    24.594362    22.610162    13645.128    9219.3708    9045.5955     9226.688   -180.09166   -296.01326    198.49536    -8303.809 
15568000    3.0014692   -10138.433    -10126.99   -10138.433            0    9178.0844    24.543345    24.587437    22.609019    13643.592    9247.8198    9137.6605    9148.7728   -79.112884   -252.43297    76.801601   -8300.7553 
15569000    3.0133664   -10138.319   -10126.831   -10138.319            0    9226.6688    24.533456    24.592871    22.611168    13642.406    9269.3772    9194.1133    9216.5158   -127.31442   -225.80858    209.86864   -8291.0885 
15570000    2.9183082   -10138.466    -10127.34   -10138.466            0    9129.3182     24.54592    24.580872    22.617372     13646.42    9160.7026    9159.0536    9068.1983   -187.04744   -138.31767    101.68017   -8310.4321 
15571000     3.076395   -10138.702   -10126.974   -10138.702            0    9180.6175    24.547843    24.575149    22.618306    13644.875    9183.7645    9187.3003    9170.7878   -142.44618   -319.32343    135.56655   -8300.0628 
15572000    3.0194195   -10137.973   -10126.462   -10137.973            0    9189.8986    24.556413    24.580124    22.604011    13643.774    9059.4084    9215.7719    9294.5154   -244.21186   -310.06411    256.60531   -8297.8516 
15573000    2.9519139   -10138.941   -10127.687   -10138.941            0     9152.461    24.557362    24.570649    22.615516    13645.983    9052.9293    9187.8317    9216.6219    -171.0392   -200.77832    289.46188   -8306.2314 
15574000    3.0186752   -10138.154   -10126.646   -10138.154            0    9210.1278    24.561074    24.563428    22.615258     13643.88    9123.6853    9289.7081      9216.99   -65.615122   -225.67204    168.50452   -8293.9962 
15575000    3.0611556   -10137.848   -10126.177   -10137.848            0    9164.6179    24.562613    24.563064    22.616615    13645.351    9039.3464    9268.3183    9186.1889   -72.949046   -313.51838    102.35273   -8302.3865 
15576000    3.0075484   -10138.748   -10127.282   -10138.748            0    9140.0924    24.580288    24.561417    22.603329    13646.233    8968.0715    9212.5212    9239.6845   -116.73684   -238.13051    257.35996   -8308.2546 
15577000    2.9991198   -10138.935   -10127.501   -10138.935            0    9157.8641    24.563279    24.568305    22.613771    13646.916    9068.9731    9182.9669    9221.6524   -122.73255   -228.59175    96.261417   -8304.8456 
15578000     2.937141   -10138.263   -10127.065   -10138.263            0    9136.2859    24.566098    24.559833    22.620482    13647.825    9035.4208    9252.6039    9120.8331   -107.68398   -203.83348    107.68242   -8308.5831 
15579000    2.9857023   -10138.638   -10127.255   -10138.638            0    9194.6738    24.566788    24.554395    22.618955    13644.265    9093.3076     9334.514    9156.1997   -152.56487   -231.56576    2.6312538   -8297.6291 
15580000    2.9629013   -10138.336    -10127.04   -10138.336            0    9174.7967    24.570749     24.55364    22.617517    13645.178    9055.4028    9304.5721    9164.4151   -92.769836   -87.076233    60.521037   -8301.2468 
15581000    3.0170471   -10138.112    -10126.61   -10138.112            0    9161.1792    24.575469    24.557246    22.610213    13645.396    9012.4353    9293.8433    9177.2591   -225.40556   -240.56823    240.66243   -8303.4974 
15582000    3.0478382   -10138.695   -10127.075   -10138.695            0     9146.227    24.570023     24.55644    22.616093    13645.472    9073.3919    9275.8503    9089.4388   -67.752014   -250.85646    287.28021   -8306.9281 
15583000    2.8291387   -10138.541   -10127.755   -10138.541            0    9179.2498    24.575366    24.548832    22.617469     13645.04    9058.8783    9313.9569    9164.9143   -108.90747   -114.80947   -7.7980635    -8301.094 
15584000    2.9665134   -10138.658   -10127.348   -10138.658            0      9114.71    24.586005     24.55154    22.608962    13647.319    8920.7225    9303.1441    9120.2634    -210.9892   -272.06483    36.865013   -8313.2281 
15585000    2.8890789   -10138.425   -10127.411   -10138.425            0    9193.0762    24.561633    24.557646     22.62186    13644.961    9090.8842    9338.2429    9150.1016   -177.07532   -110.88206    274.43503   -8298.0094 
15586000    3.0675775   -10138.442   -10126.747   -10138.442            0    9175.7721    24.591219    24.546691    22.602962    13643.895    8958.1713    9381.2997    9187.8454   -44.231854   -293.49962    129.70092   -8300.9313 
15587000    3.0950728   -10138.997   -10127.197   -10138.997            0    9115.0212    24.568488    24.552574     22.62285    13646.547    8977.4552    9289.7766    9077.8317   -128.10494   -222.94478    111.10073   -8313.1171 
15588000    3.0429777   -10137.678   -10126.076   -10137.678            0    9217.7699    24.563668    24.559592    22.614476    13642.718    9119.6303    9305.6432    9228.0362   -80.989883   -179.78773    231.83991   -8292.0624 
15589000    2.8368458   -10138.441   -10127.626   -10138.441            0    9216.5416    24.574078    24.562342    22.603922    13643.657    9063.5563    9346.8087    9239.2596   -186.94844   -291.88558    183.84633   -8293.7296 
15590000    2.9814798   -10138.309   -10126.942   -10138.309            0    9091.7065    24.564855     24.56633    22.616114    13648.109    9035.9796    9106.1227    9133.0172   -139.14937    -221.2918    184.78679   -8317.2957 
15591000    2.9549485   -10138.999   -10127.733   -10138.999            0    9101.3094    24.558105    24.575582     22.61363    13647.997    9067.1826    9151.3094    9085.4363    -172.6754   -118.44236    154.67014   -8316.1898 
15592000    3.0367191   -10138.478     -10126.9   -10138.478            0    9163.0006    24.562431    24.573141    22.607187    13645.158    9089.2711    9158.2934    9241.4374   -251.52874   -133.52655    266.32472   -8303.4573 
15593000    3.0588643    -10138.81   -10127.148    -10138.81            0    9164.8426    24.552628    24.566414    22.626438    13647.589    9083.4513    9254.9435    9156.1331   -117.60231    -273.9914    26.387647   -8303.0138 
15594000    3.0154038   -10138.442   -10126.946   -10138.442            0    9195.8326    24.547418    24.576153    22.616591    13644.162    9179.3576    9217.5786    9190.5617   -152.65514   -308.37877     216.3388   -8297.1034 
15595000    2.9477716   -10138.407   -10127.168   -10138.407            0    9177.2332    24.548813     24.56844    22.623737    13644.965    9144.2793    9226.8411    9160.5793   -132.56822   -299.51092    291.19973   -8300.9189 
15596000    3.0711416    -10138.72   -10127.012    -10138.72            0    9194.1306    24.543968    24.578762    22.616997    13643.937    9218.3484    9177.4117    9186.6316   -223.62976   -294.55375   -1.3190078   -8297.5377 
15597000    2.9188865   -10138.202   -10127.074   -10138.202            0    9134.9453    24.551946     24.59072    22.603644    13646.951    9078.0846    9064.0947    9262.6566    -112.1265   -327.79798    144.74313   -8308.9748 
15598000    2.9838601   -10139.742   -10128.366   -10139.742            0    9132.0907    24.546739    24.580368    22.619389    13647.813    9117.3905    9048.0438     9230.838   -180.44929   -145.09351    49.452467   -8310.7203 
15599000    3.0954001   -10138.763   -10126.962   -10138.763            0    9123.9095    24.531426    24.594263    22.619005    13646.778    9200.7719    9075.5833    9095.3732   -202.74374   -231.68682    96.257918   -8311.0824 
15600000    2.9651194   -10139.227   -10127.923   -10139.227            0    9157.4274    24.537642    24.600271    22.606829     13646.22    9171.7331    9053.6991      9246.85   -72.399775   -333.54112     94.11157    -8305.447 
15601000    2.9580761   -10138.851   -10127.573   -10138.851            0    9179.3646    24.526605    24.587144    22.628396    13645.809    9272.0286    9119.2521    9146.8131   -151.96347   -246.36459    166.60177   -8300.7867 
15602000    3.0485626   -10138.177   -10126.554   -10138.177            0    9153.7097    24.533894    24.594514    22.613506    13644.971    9208.3756    9122.7633    9129.9902   -61.082611   -109.17465    73.197092   -8304.9853 
15603000    3.0213809   -10138.166   -10126.647   -10138.166            0    9203.0381    24.526258    24.595097    22.619424    13644.617    9326.9771    9150.4532    9131.6842   -202.92719   -201.64036    184.92668   -8295.3095 
15604000    2.9782935    -10138.64   -10127.286    -10138.64            0    9131.9122     24.52437    24.595512    22.623395    13646.193    9239.5919    9063.8017     9092.343   -149.61948   -191.30564    56.612696   -8309.8915 
15605000    3.0050723   -10137.993   -10126.537   -10137.993            0     9149.321    24.529785    24.616403    22.599108    13646.134    9254.9767    8943.6429    9249.3436   -152.55469   -101.57116    264.23884   -8305.6858 
15606000    2.9393625    -10138.73   -10127.524    -10138.73            0    9173.6488    24.523707    24.604509    22.613983    13645.136    9272.5314    9061.5487    9186.8663   -164.38357   -197.18486    86.035641   -8301.9649 
15607000    3.0265663   -10138.184   -10126.645   -10138.184            0    9181.8582    24.522421    24.599417    22.620419    13645.479    9339.3739    9046.2357    9159.9652   -109.63505   -228.36353    226.82979   -8299.4068 
15608000    2.9627367   -10137.609   -10126.314   -10137.609            0    9186.4919    24.521361    24.606207    22.611732    13643.414    9331.5871    8982.0428     9245.846   -129.45509   -264.83653    211.68276   -8298.4294 
15609000    2.8840398   -10138.091   -10127.096   -10138.091            0    9209.1935    24.512326    24.607951    22.619447    13644.008    9356.7384    9045.5781    9225.2638    23.745342   -243.12686    210.49354   -8294.6152 
15610000    2.8965625   -10138.242   -10127.199   -10138.242            0    9136.2482    24.519458    24.606894     22.61581    13645.197    9299.0452    9000.0673    9109.6322   -90.470476   -252.56236    75.196727    -8309.075 
15611000    3.0033249   -10138.209   -10126.759   -10138.209            0    9172.2969    24.519583    24.603163    22.618856    13645.035    9302.5714    9086.9846    9127.3347   -199.87066   -267.81194    172.47488   -8301.4826 
15612000    3.0454557   -10138.213   -10126.603   -10138.213            0    9239.2687    24.522186    24.608266    22.607611    13642.528    9431.8616    9045.3945      9240.55   -158.41969   -207.00276    134.66787   -8288.3366 
15613000    2.9664128   -10138.361   -10127.052   -10138.361            0    9159.1932    24.521111    24.607794     22.61541    13646.375     9321.917    8909.8527    9245.8098   -193.94709   -76.405562    291.56552   -8304.2039 
15614000     3.124897   -10137.932   -10126.018   -10137.932            0    9191.2285    24.528248    24.606283    22.607026    13644.448    9238.4807    9135.2274    9199.9773   -110.61093   -123.10895    150.51996   -8297.0533 
15615000    3.1474493   -10138.291   -10126.292   -10138.291            0     9157.924    24.521779    24.601566    22.620138    13646.145    9346.3229    9056.6529    9070.7964   -125.27712   -175.22925    204.38621   -8303.7272 
15616000    2.9510733   -10138.462   -10127.211   -10138.462            0    9210.1677    24.532279      24.5935    22.613378    13643.433     9277.662    9133.1037    9219.7374   -145.14384   -248.01002    256.56554   -8294.6137 
15617000    2.8924558   -10138.144   -10127.117   -10138.144            0    9152.7499    24.541631    24.589086    22.612121    13645.426    9161.9363    9112.1569    9184.1564   -173.83507   -112.61103    27.400346   -8305.6779 
15618000    2.9351733   -10139.048   -10127.857   -10139.048            0    9135.0679    24.541967    24.590134    22.612528     13646.44    9145.7269    9092.1256    9167.3513   -147.35016     -402.622   -64.267355   -8309.8022 
15619000    3.0502184   -10138.529     -10126.9   -10138.529            0    9138.6376     24.54974    24.579876    22.616766    13647.626     9156.716    9098.8571    9160.3397   -125.24613   -234.80504    113.14895   -8307.9764 
15620000     2.982326   -10137.904   -10126.534   -10137.904            0    9191.3248    24.555236    24.579971    22.604449    13643.299    9192.8524    9168.1826    9212.9394   -203.37918   -185.18332    191.23144   -8297.7036 
15621000    3.0107279   -10138.745   -10127.267   -10138.745            0    9118.2967    24.547467    24.582629     22.61538    13647.054    9102.1403     9125.543    9127.2069   -194.64314   -123.01848    126.98399   -8312.4679 
15622000    2.9631881   -10138.102   -10126.805   -10138.102            0    9202.3061    24.555622    24.573116    22.611415    13643.912    9171.3642    9260.9638    9174.5904   -37.993943   -23.930162    139.77371   -8295.7079 
15623000    2.9385595   -10137.842   -10126.639   -10137.842            0    9208.3741     24.55502     24.56141    22.623321    13644.259     9177.882    9326.7323     9120.508   -164.57995   -229.18265    145.79558   -8294.2872 
15624000    3.1386756   -10138.621   -10126.655   -10138.621            0    9122.9793    24.563281    24.572931    22.606936    13645.361    9062.9767    9197.7408    9108.2204   -181.03714   -308.62504    177.54219   -8311.1494 
15625000    3.0742761   -10138.366   -10126.645   -10138.366            0    9170.5351    24.563193    24.554512    22.624077    13645.423    9030.9616    9304.4318    9176.2119   -235.73064   -280.12474    74.763071   -8301.6675 
15626000    2.9812247   -10138.317   -10126.951   -10138.317            0    9193.7664    24.555578    24.561368     22.62487    13645.479    9157.3744    9273.2745    9150.6502   -203.28781   -219.63912   -129.06737   -8297.3427 
15627000    3.0304092   -10137.959   -10126.405   -10137.959            0    9199.3908    24.569291    24.557025    22.616032    13645.354    9071.8358    9310.8984    9215.4383   -57.020649   -247.09091     117.6007   -8295.6944 
15628000    3.0087986   -10138.436   -10126.965   -10138.436            0    9182.3686    24.569931    24.551258    22.620704    13645.323    9100.4572    9274.7126    9171.9361   -95.582629   -175.78315    87.252032   -8299.6459 
15629000    3.0392328   -10138.013   -10126.426   -10138.013            0    9144.7221    24.564525    24.557666    22.622304    13646.846    9046.6324    9277.2596    9110.2742   -181.04345   -162.00797    216.81864   -8306.3953 
15630000    2.9817565   -10138.185   -10126.817   -10138.185            0    9251.3133    24.572706     24.55712    22.605063    13640.684    9183.5974    9366.3008    9204.0417   -145.75956   -226.84559    235.41631   -8286.4039 
15631000    2.8968569   -10138.527   -10127.483   -10138.527            0    9130.3981     24.56671     24.55049    22.626844     13646.81    9056.9981    9286.9889    9047.2072   -249.57192   -209.73508    96.654619   -8310.3082 
15632000    2.9175674   -10138.029   -10126.906   -10138.029            0    9144.4806    24.570596    24.554191     22.61748    13645.377     9000.682     9320.606    9112.1539   -140.06392   -280.61815    203.23917   -8307.1191 
15633000    2.8800832   -10137.695   -10126.715   -10137.695            0     9184.832    24.582186     24.55113    22.607135    13643.868    9106.9515    9303.0064    9144.5383   -262.48865   -153.50342   -18.692218   -8299.1001 
15634000    2.9962266   -10138.539   -10127.116   -10138.539            0    9186.1156    24.588476      24.5429    22.609399     13644.15    8962.2821    9399.3598    9196.7049   -271.83522   -293.23461     141.4401   -8299.2082 
15635000    2.9218749   -10138.355   -10127.215   -10138.355            0    9214.1399    24.570243    24.556723    22.612606    13643.648    9108.5514    9334.2292    9199.6393     -186.038   -121.37567     203.3146   -8293.7985 
15636000    2.9836067    -10137.99   -10126.615    -10137.99            0    9151.8673    24.566051    24.556632    22.618585    13644.876    9090.8031    9318.0403    9046.7584    -201.9758    -107.6932    74.556777   -8305.4251 
15637000     2.972973   -10138.535   -10127.201   -10138.535            0    9191.0288     24.57599    24.558653     22.60529    13643.495    9055.4741    9376.7865    9140.8256   -94.741483   -217.77176    167.59786   -8298.4031 
15638000    2.9713655   -10138.302   -10126.974   -10138.302            0    9160.2229      24.5745    24.561367    22.606691    13645.022    9002.6819    9248.8749    9229.1119   -216.37339   -175.10558    249.49047   -8304.1018 
15639000    2.8863968   -10138.129   -10127.125   -10138.129            0     9184.266    24.575872    24.556928    22.608249    13644.257    9053.1064    9231.1476    9268.5441   -138.14749    -248.5198    51.780096   -8299.5706 
15640000     3.038492   -10138.543   -10126.958   -10138.543            0    9134.0955    24.562384    24.565336    22.616035    13646.136       9105.5    9162.4204    9134.3661   -204.60636   -200.26847    147.75526   -8309.1374 
15641000    2.8786984   -10138.412   -10127.437   -10138.412            0    9195.8325    24.565989    24.563298    22.611776    13644.437    9108.9854    9289.0897    9189.4226   -196.05253   -299.66964    154.76581   -8297.5573 
15642000    2.9960654   -10139.109   -10127.686   -10139.109            0    9158.8596     24.56464    24.559146    22.620361     13646.56    9077.7571    9258.0922    9140.7295   -186.60163   -195.28064    210.93722   -8304.8802 
15643000    2.8971461   -10138.492   -10127.446   -10138.492            0    9148.0621    24.561004    24.573734    22.609339    13645.993    9017.6869    9166.9564    9259.5429   -183.29298   -175.17624    157.52842    -8306.865 
15644000    3.0628355   -10138.906   -10127.229   -10138.906            0     9185.906    24.548669    24.566696    22.626118    13645.352    9164.9141    9189.4866    9203.3174   -40.326254    -92.23878    217.27757    -8299.202 
15645000    3.1586767   -10138.165   -10126.123   -10138.165            0    9197.9242    24.550792    24.574494    22.613842    13643.458    9229.0868    9217.7524    9146.9333   -175.42364   -267.26837   0.52179171   -8295.9581 
15646000    2.9644658   -10138.962    -10127.66   -10138.962            0    9145.0604    24.555018    24.573015    22.617035    13646.911    9101.2175    9180.0538    9153.9099   -204.70381   -245.82851    147.01931   -8307.5538 
15647000    2.9493872   -10138.572   -10127.327   -10138.572            0    9171.8574    24.544128    24.573386    22.625417     13646.12     9221.141    9102.4257    9192.0057   -102.69046   -287.99645    82.099006   -8301.9934 
15648000    2.9206288   -10138.642   -10127.507   -10138.642            0    9162.3873    24.541341    24.586353    22.613936    13644.844    9222.0086    9086.1685    9178.9849   -181.03974   -205.91329    228.57954    -8304.228 
15649000    3.0976808   -10138.738   -10126.928   -10138.738            0    9151.6944    24.546588    24.588591    22.606432    13644.474    9206.4508    9118.8734     9129.759   -107.84014   -58.394777    45.081633   -8305.8261 
15650000    2.9088314   -10138.617   -10127.527   -10138.617            0    9175.0693    24.541916    24.584274    22.615378    13644.879    9184.4549    9168.1889    9172.5643   -108.03319    31.325017    66.274196   -8301.7197 
15651000    3.0274037   -10138.475   -10126.934   -10138.475            0     9178.335    24.538725    24.589191     22.61343    13644.659     9226.636    9183.4745    9124.8945   -192.34032   -156.39794    191.58377   -8300.5059 
15652000    2.9945652   -10138.867   -10127.451   -10138.867            0    9194.4975    24.531725    24.597022    22.612026    13644.264    9250.8388    9109.0487     9223.605    -187.0714   -186.92368    252.66141   -8297.8598 
15653000    3.0825496   -10138.758   -10127.006   -10138.758            0    9134.5738    24.535886     24.59238    22.614434    13645.455    9158.9669     9097.671    9147.0835   -130.13217   -177.86504    76.638319   -8309.1808 
15654000    2.9715035   -10138.602   -10127.273   -10138.602            0    9152.3842    24.537625     24.59548    22.608133    13644.339    9233.9711    9083.6512    9139.5302   -81.295314   -182.29123     79.00598   -8306.0521 
15655000    2.9418686   -10137.854   -10126.639   -10137.854            0    9205.5081    24.519421    24.598365    22.621705    13644.002    9359.4856    9068.7782    9188.2604   -195.23841   -292.38256     90.73425   -8294.8919 
15656000    2.8457966   -10139.245   -10128.395   -10139.245            0    9107.5474    24.521694    24.611878    22.615221    13648.851    9224.7766    9037.1977    9060.6677   -214.52442   -6.3236262     121.3815   -8315.4973 
15657000    2.9765345   -10138.821   -10127.473   -10138.821            0    9145.4031    24.514927    24.609099    22.619234    13645.963    9283.5478    8981.3369    9171.3246   -134.93892   -172.71407    194.33155   -8307.4249 
15658000     2.946887   -10137.902   -10126.667   -10137.902            0    9165.3831    24.528299    24.617291    22.596387    13644.157    9333.1204    8886.2351    9276.7939   -69.224554    -191.5628    79.966837    -8302.884 
15659000    2.9225879    -10137.72   -10126.577    -10137.72            0    9170.0676    24.511334    24.599365       22.632    13646.265    9378.7193    9099.0753    9032.4082   -130.96695   -100.62387    184.02311     -8301.58 
15660000    2.8944622   -10137.737   -10126.702   -10137.737            0    9204.2774    24.523875    24.616784    22.599751    13643.445    9297.8291    9006.8291    9308.1742   -104.20959   -185.85843    143.34108   -8295.2747 
15661000    2.8991459   -10139.006   -10127.953   -10139.006            0    9143.8226    24.525881    24.611799     22.60761    13646.543    9208.4801     8966.663    9256.3249   -143.76226   -258.38907      210.015   -8308.1417 
15662000    3.0336982   -10138.619   -10127.053   -10138.619            0    9171.5748    24.521623    24.606698     22.61217    13644.096    9322.9802    8986.7587    9204.9854   -195.66205   -87.396571    229.89841   -8302.0459 
15663000    3.0066425   -10138.658   -10127.195   -10138.658            0    9145.5202    24.523724    24.599593    22.621031    13646.672    9304.2308    9005.1374    9127.1923   -192.16774   -38.327031    93.842789   -8307.0293 
15664000    2.9418618   -10138.783   -10127.567   -10138.783            0    9147.8257    24.523683    24.605505    22.614374    13645.911    9322.1029    9029.0263     9092.348   -165.26125   -158.64798    214.74488   -8307.0432 
15665000    3.0449034   -10138.985   -10127.376   -10138.985            0    9124.9758    24.524911    24.602415    22.620341    13648.481    9314.4106    9023.2209    9037.2959   -105.66147    -122.1479    167.08569    -8311.058 
15666000    3.0407065   -10138.763   -10127.171   -10138.763            0    9131.6517    24.519456    24.601579    22.622741    13646.429    9292.5147    9017.9619    9084.4786   -212.48586   -122.39693   -43.246234   -8309.7967 
15667000    2.8738586   -10138.995   -10128.038   -10138.995            0    9172.5508    24.522587    24.592782    22.626218    13645.388    9311.6704    9118.6773    9087.3048   -178.94492   -298.78956    43.491328   -8302.6641 
15668000    3.0407873   -10137.812   -10126.219   -10137.812            0    9218.6087    24.530201    24.598241    22.611776    13643.941    9268.2741    9084.9873    9302.5646   -102.22191   -123.90776   -81.291695   -8291.8736 
15669000    2.9631547   -10138.626   -10127.329   -10138.626            0    9156.5739     24.53402    24.591759     22.61695    13645.591    9212.9975    9090.8905    9165.8336   -233.37627   -242.86647    91.185168   -8305.1073 
15670000    2.9685898   -10138.803   -10127.485   -10138.803            0    9134.0819    24.538602    24.597662    22.608882    13646.546    9214.9672    9029.3227    9157.9557   -113.98891   -61.149905    93.586245    -8309.612 
15671000    2.9541444   -10138.644   -10127.381   -10138.644            0    9160.7426    24.534691      24.5923    22.617342    13646.501     9260.723    9089.1493    9132.3556   -168.14764   -64.256754    114.89794   -8304.2082 
15672000    3.0543749   -10138.949   -10127.304   -10138.949            0    9155.5942    24.536695    24.586119    22.619826    13645.684     9214.463    9129.6206    9122.6989   -113.81526   -3.7644697    138.89091   -8305.2652 
15673000    2.9514862   -10138.388   -10127.135   -10138.388            0    9123.1642    24.556781    24.578964    22.608598    13646.103    9093.5527    9127.9558    9147.9842    -119.3145   -131.02309    145.44746   -8311.4939 
15674000    2.9731357   -10138.454   -10127.119   -10138.454            0    9143.7153     24.54942    24.576677    22.616712    13645.639    9175.4266    9136.5685    9119.1508   -196.73376   -67.062987    151.39363   -8307.4495 
15675000    2.9078669    -10138.27   -10127.184    -10138.27            0    9133.3504    24.554049    24.569693    22.620776    13646.785    9137.1797    9173.1231    9089.7484   -254.34336   -215.37413    134.80613   -8309.4245 
15676000    2.8346994   -10138.285   -10127.478   -10138.285            0    9190.0414    24.552386    24.566295    22.623433    13645.576      9158.55    9301.9862    9109.5881    -219.1956   -143.66728    113.57231   -8298.5979 
15677000    2.9621013   -10138.401   -10127.108   -10138.401            0    9208.6576    24.563046    24.573059    22.603714    13643.357    9141.5448    9223.6237    9260.8042   -140.10431   -334.58246    251.67776   -8294.8208 
15678000    2.9804621   -10138.559   -10127.196   -10138.559            0     9175.485    24.562195    24.571199    22.609902    13645.586    9063.7772    9171.0234    9291.6543   -149.10609   -158.63878    287.79739   -8301.2116 
15679000    2.9995837   -10138.696    -10127.26   -10138.696            0     9135.892    24.567914    24.566731    22.609453    13646.011    9097.3183    9172.4014    9137.9563   -238.01942    8.5323038     95.19017   -8309.0984 
15680000    2.8919231   -10138.418   -10127.392   -10138.418            0    9187.5282    24.550091    24.561229     22.62954    13645.169    9249.4008      9280.23    9032.9538   -264.97889   -108.95688    92.652436   -8299.0668 
15681000    3.0450599   -10138.597   -10126.987   -10138.597            0    9162.3106    24.565997    24.565311    22.609548    13644.215    9011.1829    9335.5685    9140.1805   -148.38674   -245.56038    95.844844   -8303.8078 
15682000    2.9363645   -10137.634   -10126.439   -10137.634            0    9198.2728    24.570226    24.556518    22.615039    13644.992    9037.7838    9356.8283    9200.2063   -140.97051    -99.65096    64.850984   -8295.9993 
15683000    2.9815927   -10138.348   -10126.981   -10138.348            0     9151.325    24.573543    24.560656    22.607047     13644.31     9051.222    9267.2737    9135.4793   -157.20795   -62.982516    239.57754   -8305.9747 
15684000    3.0227619    -10138.19   -10126.666    -10138.19            0    9179.5523     24.56801    24.541641    22.631177    13645.226    9104.8335    9333.7976    9100.0259   -208.24628   -159.91386    214.59065   -8299.9197 
15685000    3.0237167   -10137.708   -10126.181   -10137.708            0    9133.7001    24.581057    24.553967    22.608243    13645.487    9001.0651    9223.7855    9176.2497   -301.71933   -49.019415    192.84556   -8308.5246 
15686000    3.1023722   -10137.806   -10125.979   -10137.806            0    9173.8265    24.580117    24.558335    22.602569    13643.967    8989.5134    9285.8675    9246.0985   -86.539236    -173.4117    21.972957   -8300.5407 
15687000    2.9205162   -10138.715   -10127.581   -10138.715            0    9159.0707      24.5808    24.550091    22.612421    13645.711    8938.4425    9334.8675     9203.902   -142.36935   -329.55294    120.53492   -8304.8458 
15688000    2.9809553   -10137.616   -10126.251   -10137.616            0    9174.9628    24.577975    24.543873    22.619218    13644.788    9104.3744     9283.739    9136.7749   -165.90377   -246.47985    70.738118   -8300.4769 
15689000    2.9303686   -10139.157   -10127.985   -10139.157            0    9135.8191    24.568158    24.565778    22.609728    13645.783    9052.0847     9188.801    9166.5715   -205.33639   -217.31855      174.927   -8309.8683 
15690000    3.0102513   -10137.993   -10126.517   -10137.993            0    9173.4515    24.570038    24.561005    22.609686    13644.151     9112.651    9271.5615    9136.1421   -117.76672   -247.71883    132.36704   -8301.1286 
15691000    2.9521248    -10138.01   -10126.755    -10138.01            0    9177.7034    24.561748    24.560171    22.618817    13644.591    9075.5628    9302.7122    9154.8351    -153.8656   -227.65247    117.36779   -8300.4622 
15692000    2.9550646   -10137.826    -10126.56   -10137.826            0    9175.0783    24.566735    24.566826    22.606381    13643.555    9036.1055    9268.2305     9220.899   -234.11038   -147.73452   -57.609648   -8300.9279 
15693000     2.988493   -10138.755   -10127.362   -10138.755            0    9145.3439    24.553542    24.584807    22.605862    13645.895    9114.5198    9087.1738     9234.338   -159.93318   -133.57907    229.65229   -8307.3345 
15694000    3.0344585   -10139.065   -10127.497   -10139.065            0    9143.8914    24.561024     24.57924    22.604131    13645.918    9074.9348    9143.4798    9213.2596   -219.18643   -243.20941    254.10762   -8307.7552 
15695000    3.0389144   -10138.318   -10126.732   -10138.318            0    9185.9201    24.543734    24.580913    22.617625     13645.38    9169.5429    9253.1814     9135.036    -167.8673   -210.62562     174.4525   -8298.6981 
15696000    3.0705171   -10138.651   -10126.945   -10138.651            0    9154.4824    24.551606    24.582929    22.606848    13644.372     9144.209    9136.8429    9182.3953   -197.93834   -125.72305      31.7953   -8305.3022 
15697000    3.0502216   -10138.543   -10126.915   -10138.543            0    9255.6744    24.538767    24.583749    22.613735    13641.846     9299.792    9253.6327    9213.5985   -140.14526    -248.2321   -47.857215   -8285.4766 
15698000    3.0226475   -10137.815   -10126.292   -10137.815            0    9202.4676     24.54361    24.582492    22.612357    13643.009    9225.1225    9165.4853     9216.795   -230.11917   -185.90535    244.15509   -8295.2832 
15699000    3.0245067   -10138.645   -10127.114   -10138.645            0    9142.7361    24.538812     24.59746    22.610736    13647.669     9190.524    8984.5534    9253.1309   -140.14655   -94.202833    268.92389   -8307.3693 
15700000    2.9887548   -10138.405   -10127.011   -10138.405            0    9159.2463      24.5394    24.597934    22.604419    13644.446    9188.7387    9082.1072     9206.893   -140.53199    -259.8787    152.34167   -8304.4102 
15701000    3.1508313   -10139.029   -10127.016   -10139.029            0    9142.0513    24.535585    24.585009    22.623634    13646.747    9182.5174     9105.938    9137.6985   -198.32913   -286.94767    68.383733   -8307.5305 
15702000    3.0477992   -10138.834   -10127.215   -10138.834            0    9173.3414    24.535541    24.604905    22.601619    13644.477    9240.9921    9003.4277    9275.6044   -212.09994   -187.50543    144.95782   -8301.8051 
15703000    2.9538827   -10138.352    -10127.09   -10138.352            0    9256.6396    24.524243    24.610183    22.602903    13641.894    9359.2685    9083.3427    9327.3077    -98.82163    -253.5573    89.558661   -8285.4537 
15704000    3.1123348   -10138.686   -10126.821   -10138.686            0    9180.0499    24.524151    24.600888    22.615672    13644.394     9272.342    9046.5265    9221.2812   -181.65777   -352.88698    248.75944   -8300.0873 
15705000    2.9322141   -10138.482   -10127.303   -10138.482            0    9159.9575    24.515858     24.59799    22.629635    13646.594    9307.6285    9081.7074    9090.5366   -103.48204   -260.99516    95.389679   -8304.2738 
15706000    2.8462847   -10138.277   -10127.425   -10138.277            0    9203.4345    24.516351     24.61161    22.612245    13643.932    9371.9245    9024.4661    9213.9128   -186.63611   -214.28268    42.989654   -8296.1007 
15707000    3.0254715   -10138.312   -10126.778   -10138.312            0    9152.6381    24.508642    24.603999    22.629834    13646.029    9400.8724    8995.2121    9061.8298   -234.08359   -124.99569    83.985362   -8305.2808 
15708000    2.9569865   -10138.679   -10127.406   -10138.679            0     9114.238     24.52139    24.599425    22.624704    13647.495    9246.6213     9012.863    9083.2297   -302.13442   -77.462905    170.94313   -8313.3559 
15709000    2.9657682   -10138.014   -10126.707   -10138.014            0    9120.3291     24.52478       24.604    22.614407    13645.707     9228.675     9016.593    9115.7193   -214.03554   -208.66861    159.78881   -8311.6831 
15710000    2.9523538   -10138.108   -10126.852   -10138.108            0    9183.1321    24.519464    24.611076    22.612719    13645.654    9291.8535    9056.6551    9200.8877   -59.289094   -208.28499    215.94224   -8299.3368 
15711000    3.0420535   -10138.878   -10127.281   -10138.878            0    9087.6783    24.526288    24.595001    22.626421    13648.802    9191.1095    9041.0883    9030.8372   -202.87893   -164.68931    110.22534   -8318.3439 
15712000    3.0107195   -10138.402   -10126.924   -10138.402            0     9167.133    24.532355    24.601154    22.607863    13644.393     9254.809    9040.4139     9206.176   -181.48906   -249.92049    229.74951   -8302.7606 
15713000    2.9036132   -10138.083   -10127.014   -10138.083            0    9224.5003    24.522418    24.612137    22.605586    13643.581      9280.54    9026.8747    9366.0863   -136.50184   -187.40364    155.05095   -8291.5443 
15714000    2.9671651   -10137.886   -10126.574   -10137.886            0    9162.2141    24.526741    24.600036    22.616339    13645.765    9252.4823    9080.1529    9154.0072   -121.11404   -151.49528    139.51534   -8303.2066 
15715000    2.9557811   -10138.474   -10127.205   -10138.474            0    9179.6029    24.525598    24.603795    22.612522    13644.911    9227.5527    9044.5436    9266.7124   -153.53694   -137.69266    34.856547   -8300.4915 
15716000    2.9476846   -10138.613   -10127.375   -10138.613            0    9149.1814    24.541335    24.586787    22.615287    13645.896    9191.5609    9122.7189    9133.2644    -118.5261    2.8549017    161.92395    -8306.584 
15717000    3.1020833   -10138.315   -10126.488   -10138.315            0    9182.2132    24.533205    24.588054    22.618508    13644.021    9290.0321    9121.6653    9134.9421   -140.19477   -254.13022    141.60779   -8299.3744 
15718000    2.9757085   -10138.743   -10127.399   -10138.743            0     9177.003     24.53398    24.599452    22.607934    13644.396    9281.1291    9039.6109     9210.269    -230.9477   -212.21527    220.19614   -8301.2711 
15719000    2.9460326       -10139   -10127.768       -10139            0    9135.0119    24.541323    24.588397     22.61452     13646.32    9145.4857    9118.9393    9140.6107   -117.75213   -199.47694    283.04001   -8309.7403 
15720000    3.1035715   -10138.451   -10126.619   -10138.451            0    9207.0454    24.542577    24.587748     22.60912    13643.398     9213.361    9168.5339    9239.2412   -303.91698   -200.44414    219.80833   -8294.6474 
15721000    2.8708334   -10138.128   -10127.183   -10138.128            0    9132.8288    24.537714    24.584874    22.620005    13645.667    9221.8186    9086.5114    9090.1565   -97.283529   -127.19591    21.759125    -8309.676 
15722000    3.0246643   -10138.585   -10127.053   -10138.585            0    9197.2544     24.55181    24.575511    22.611857     13643.39    9164.6805    9173.6601    9253.4228    -147.6557   -143.18261    57.057094   -8297.0311 
15723000    3.0281906   -10139.221   -10127.677   -10139.221            0    9126.4965    24.549045    24.570564    22.628014    13648.854    9100.7476    9204.8727    9073.8692   -140.58756   -131.68551    346.97092   -8311.0062 
15724000     3.016857   -10138.163   -10126.662   -10138.163            0    9147.1933    24.557115    24.562616    22.624967    13647.085    9088.3832     9157.196    9196.0008   -210.51976   -296.56006    101.39535   -8306.1073 
15725000    2.9546867   -10138.522   -10127.257   -10138.522            0    9173.6562    24.548046    24.580337    22.611714    13643.891     9129.589    9101.5114    9289.8682   -204.22915   -83.137246    105.08932   -8301.8631 
15726000    2.8864343   -10137.772   -10126.768   -10137.772            0    9157.8022     24.56344    24.566691     22.61183    13644.938    9096.8104    9285.8227    9090.7735   -134.68701   -120.36004    193.85332    -8304.389 
15727000    3.0331252   -10138.476   -10126.913   -10138.476            0    9123.6723    24.565018    24.562055    22.618898    13647.504    8990.6379    9239.1566    9141.2223   -189.53192   -165.75172    82.792947   -8310.9838 
15728000    3.0838537    -10138.31   -10126.553    -10138.31            0    9195.8543     24.56906    24.570246    22.602396     13644.34    9122.5227    9282.2545    9182.7858   -68.516437   -179.80015    212.05802   -8296.6824 
15729000    2.9322628   -10137.402   -10126.223   -10137.402            0    9205.0934    24.573055    24.553531    22.612594    13643.428    9101.9846    9288.7574    9224.5382   -204.27566   -159.02416     140.3151   -8294.6357 
15730000    2.9435034   -10137.252    -10126.03   -10137.252            0    9206.1602    24.584462    24.557028    22.598001    13642.895    9004.5775    9354.0892    9259.8139   -323.44677   -239.41747   -8.8617858   -8294.3022 
15731000    3.0169535    -10137.79   -10126.288    -10137.79            0    9219.1535    24.583155    24.543847    22.610129    13642.165    9062.6015    9379.3163    9215.5428   -46.243101   -343.03123    114.24082   -8292.0735 
15732000    2.9745438   -10138.861   -10127.521   -10138.861            0    9141.3372    24.576948    24.551359    22.616931    13646.999     9019.872    9261.2479    9142.8917   -248.76153   -337.38776    80.704243   -8308.1432 
15733000    3.0381045   -10138.376   -10126.794   -10138.376            0    9099.7177     24.56951    24.565777     22.61133      13647.5    8986.9052    9217.2387    9095.0092   -101.47196   -264.03786    267.00739   -8315.6332 
15734000    3.0279545   -10137.876   -10126.332   -10137.876            0    9199.5275    24.562608    24.559302    22.620992    13645.898    9139.3838    9272.4719    9186.7267   -158.02766   -322.37093    103.57179   -8295.5205 
15735000     2.917317   -10137.537   -10126.415   -10137.537            0    9156.9253    24.574205    24.572039    22.594143    13643.209    8988.7394    9189.3475    9292.6892   -159.21574   -304.34666    96.044948   -8304.4412 
15736000    2.9730577   -10138.472   -10127.138   -10138.472            0    9115.3426    24.579276    24.559866    22.606062     13646.46    8962.5725    9232.7041    9150.7511   -105.46142   -183.41998    56.458064   -8313.0056 
15737000    2.9565707    -10138.97   -10127.698    -10138.97            0    9123.6345    24.571863    24.552129    22.621343    13647.265    8999.7259    9316.2072    9054.9705   -195.36734   -248.39384    95.884058   -8311.8088 
15738000    3.0456987   -10137.748   -10126.137   -10137.748            0    9193.7864    24.556505    24.553063    22.631342    13645.283    9179.7044    9293.8495    9107.8053   -120.40861   -166.56578    303.17274   -8296.5507 
15739000    3.0262533   -10138.283   -10126.745   -10138.283            0    9160.7422    24.562848    24.572618    22.607293    13645.162    9110.9864    9226.1009    9145.1392   -201.39933   -289.43096    135.87845   -8303.7512 
15740000    3.0662533   -10138.288   -10126.598   -10138.288            0    9155.6208     24.56086    24.568284    22.611794    13644.368    9076.5965    9224.0611    9166.2049   -221.71175   -271.40905    186.08889   -8304.7292 
15741000    2.9899915   -10137.662   -10126.263   -10137.662            0    9233.0997    24.554834    24.559355    22.621361    13641.832    9209.2148    9270.6274     9219.457   -81.377204   -202.32417    73.791656   -8289.3184 
15742000    2.9951693   -10138.153   -10126.734   -10138.153            0    9166.0149     24.55237    24.580484    22.609967    13645.321    9209.4144    9177.8474    9110.7827   -297.11754   -141.71708    97.246166   -8302.6698 
15743000    3.0025505    -10138.63   -10127.182    -10138.63            0    9114.2094     24.55487    24.579984    22.611335    13647.259     9119.937    9089.3586    9133.3328    -256.4193   -231.23781    89.571685   -8313.1698 
15744000     2.909051   -10138.936   -10127.845   -10138.936            0    9127.7452    24.537853     24.58499    22.625617    13649.195    9182.7277    9084.6699    9115.8381   -140.25973   -208.81642   -15.023335   -8310.8808 
15745000    3.0232746   -10138.602   -10127.075   -10138.602            0     9137.357       24.537    24.585158    22.620753    13645.879    9244.9088    9130.2283    9036.9339   -61.451876   -178.16289    55.080554   -8308.6395 
15746000    3.0581016   -10138.708   -10127.049   -10138.708            0     9178.705    24.543315    24.588641    22.607613    13643.395     9249.642    9165.6975    9120.7754   -265.23453   -152.84318    48.434157    -8300.717 
15747000    3.1062882   -10138.222   -10126.379   -10138.222            0    9085.4701    24.533748    24.596692    22.616237    13647.746    9199.1208    9012.7984    9044.4911   -153.59594   -162.79944    92.631775   -8318.0222 
15748000    2.9089566   -10138.182   -10127.092   -10138.182            0    9194.1742    24.527371    24.595859    22.618086    13644.853    9307.7138    9073.7888    9201.0199   -273.62033   -306.06011    122.60818    -8297.486 
15749000    2.8442664   -10137.796   -10126.953   -10137.796            0    9213.1666    24.520205    24.609232    22.608665    13642.598    9391.0618    9025.1607    9223.2772   -102.12207   -232.98126    80.257009   -8293.8709 
15750000    3.0420887   -10137.767   -10126.169   -10137.767            0    9183.2271    24.528763    24.599472     22.61099    13643.349    9350.9545    9101.9591    9096.7678   -139.50692   -126.05397    32.513289   -8298.9429 
Loop time of 538.37 on 64 procs for 250000 steps with 1920 atoms

Performance: 80.242 ns/day, 0.299 hours/ns, 464.365 timesteps/s
194.7% CPU use with 32 MPI tasks x 2 OpenMP threads

MPI task timing breakdown:
Section |  min time  |  avg time  |  max time  |%varavg| %total
---------------------------------------------------------------
Pair    | 71.718     | 74.608     | 80.257     |  21.6 | 13.86
Bond    | 0.7897     | 1.0488     | 1.656      |  18.5 |  0.19
Kspace  | 246.64     | 252.86     | 259.59     |  23.9 | 46.97
Neigh   | 0.1747     | 0.1893     | 0.20266    |   1.8 |  0.04
Comm    | 81.944     | 87.559     | 92.687     |  33.8 | 16.26
Output  | 0.71269    | 0.71298    | 0.71465    |   0.0 |  0.13
Modify  | 92.98      | 98.233     | 105.13     |  30.2 | 18.25
Other   |            | 23.16      |            |       |  4.30

Nlocal:        60.0000 ave          61 max          59 min
Histogram: 5 0 0 0 0 22 0 0 0 5
Nghost:        3726.41 ave        3743 max        3711 min
Histogram: 5 0 1 5 6 6 3 3 1 2
Neighs:        22294.3 ave       22708 max       21769 min
Histogram: 2 0 1 5 5 4 6 3 3 3

Total # of neighbors = 713417
Ave neighs/atom = 371.57135
Ave special neighs/atom = 2.0000000
Neighbor list builds = 250
Dangerous builds = 0

unfix		3
unfix		2
unfix		1

write_data	data.final.${pid}
write_data	data.final.1
System init for write_data ...
PPPM initialization ...
  extracting TIP4P info from pair style
  using 12-bit tables for long-range coulomb (../kspace.cpp:340)
  G vector (1/distance) = 0.37570497
  grid = 30 30 30
  stencil order = 5
  estimated absolute RMS force accuracy = 0.0031276
  estimated relative force accuracy = 9.4186744e-06
  using double precision FFTW3
  3d grid and FFT values/proc = 5400 960
Last active /omp style is kspace_style pppm/tip4p/omp
WARNING: Not all mixed pair coeffs generated from mixing. Use write_data with 'pair ij' option to store all pair coeffs. (../write_data.cpp:312)

write_restart   restart.lmp.${pid}
write_restart   restart.lmp.1
System init for write_restart ...
PPPM initialization ...
  extracting TIP4P info from pair style
  using 12-bit tables for long-range coulomb (../kspace.cpp:340)
  G vector (1/distance) = 0.37570497
  grid = 30 30 30
  stencil order = 5
  estimated absolute RMS force accuracy = 0.0031276
  estimated relative force accuracy = 9.4186744e-06
  using double precision FFTW3
  3d grid and FFT values/proc = 5400 960
Last active /omp style is kspace_style pppm/tip4p/omp
Total wall time: 0:08:58
