LAMMPS (30 Jul 2021)
Processor partition = 0
  using 2 OpenMP thread(s) per MPI task
using multi-threaded neighbor list subroutines
variable        pid world 0 1
variable        phase world IceII IceVI

shell cd ${phase}
shell cd IceII
include Restart.lmp
echo both
log log.lammps
#include		in.partitions
include		in.temp
variable        temperature equal 2.99
variable	tempDamp equal 100.0
include		in.pressure
variable        pressure equal 9163.7
variable        pressureDamp equal 1000.0 # This is 1 ps
include		in.seed
variable        seed equal 745823

units		real
atom_style	full
box tilt large
read_restart	restart.lmp.${pid}
read_restart	restart.lmp.0
Reading restart file ...
  restart file = 30 Jul 2021, LAMMPS = 30 Jul 2021
  restoring atom style full from restart
  triclinic box = (-10.497454 -9.0540492 0.30639689) to (12.477454 12.044047 21.553602) with tilt (-9.0943865 1.7589713 2.6750960)
  4 by 2 by 4 MPI processor grid
  restoring pair style lj/cut/tip4p/long/omp from restart
  restoring bond style harmonic/omp from restart
  restoring angle style harmonic/omp from restart
  1296 atoms
  864 bonds
  432 angles
Finding 1-2 1-3 1-4 neighbors ...
  special bond factors lj:    0        0        0       
  special bond factors coul:  0        0        0       
     2 = max # of 1-2 neighbors
     1 = max # of 1-3 neighbors
     1 = max # of 1-4 neighbors
     2 = max # of special neighbors
  special bonds CPU = 0.002 seconds
  read_restart CPU = 0.008 seconds
include 	in.setup
variable	out_freq equal 1000
variable	out_freq2 equal 10000
variable	out_freq3 equal 1000

timestep	2.0

neigh_modify    delay 7 every 1

include		in.tip4p
# This is TIP4P/Ice

# create groups ###
group ox type 2
432 atoms in group ox
group hy type 1
864 atoms in group hy

# set charges - beside manually ###
set group ox charge -1.1794
Setting atom values ...
  432 settings made for charge
set group hy charge 0.5897
Setting atom values ...
  864 settings made for charge

# ### TIP3P Potential Parameters ###
pair_style lj/cut/tip4p/long/omp 2 1 1 1 0.1577 8.5
pair_coeff 1 1*2 0.000 0.000
pair_coeff 2 2 0.21084 3.1668
bond_style  harmonic
bond_coeff  1 450 0.9572
angle_style harmonic
angle_coeff 1 55 104.52
kspace_style pppm/tip4p/omp 1.0e-5
pair_modify tail yes

thermo          ${out_freq}
thermo          1000
thermo_style    custom step temp pe etotal epair emol press lx ly lz vol pxx pyy pzz pxy pxz pyz enthalpy

restart 	${out_freq3} restart.lmp.${pid} restart2.lmp.${pid}
restart 	1000 restart.lmp.${pid} restart2.lmp.${pid}
restart 	1000 restart.lmp.0 restart2.lmp.${pid}
restart 	1000 restart.lmp.0 restart2.lmp.0


include         in.dump
dump            myDump all atom ${out_freq2} dump.water.${pid}
dump            myDump all atom 10000 dump.water.${pid}
dump            myDump all atom 10000 dump.water.0
dump            myDump2 all dcd ${out_freq2} dump.dcd
dump            myDump2 all dcd 10000 dump.dcd
dump_modify     myDump append yes
dump_modify     myDump2 append yes


variable natoms 	equal  "count(all)"                        # NUMBER ATOMS
variable H      	equal  "enthalpy/v_natoms"                 # ENTHALPY-per-atom
variable Vol      	equal  "vol/v_natoms"                 # volume-per-atom
fix AVG all 		ave/time ${out_freq} 1 ${out_freq} v_Vol v_H file vol_enthalpy.dat
fix AVG all 		ave/time 1000 1 ${out_freq} v_Vol v_H file vol_enthalpy.dat
fix AVG all 		ave/time 1000 1 1000 v_Vol v_H file vol_enthalpy.dat


timer           timeout 10:00:00 every 1000
New timer settings: style=normal  mode=nosync  timeout=10:00:00

fix 		1 all shake 1e-6 200 0 b 1 a 1
Finding SHAKE clusters ...
       0 = # of size 2 clusters
       0 = # of size 3 clusters
       0 = # of size 4 clusters
     432 = # of frozen angles
  find clusters CPU = 0.001 seconds
fix             2 all nph tri ${pressure} ${pressure} ${pressureDamp}
fix             2 all nph tri 9163.7 ${pressure} ${pressureDamp}
fix             2 all nph tri 9163.7 9163.7 ${pressureDamp}
fix             2 all nph tri 9163.7 9163.7 1000
fix             3 all temp/csvr ${temperature} ${temperature} ${tempDamp} ${seed}
fix             3 all temp/csvr 2.99 ${temperature} ${tempDamp} ${seed}
fix             3 all temp/csvr 2.99 2.99 ${tempDamp} ${seed}
fix             3 all temp/csvr 2.99 2.99 100 ${seed}
fix             3 all temp/csvr 2.99 2.99 100 745823


run             250000
PPPM initialization ...
  extracting TIP4P info from pair style
  using 12-bit tables for long-range coulomb (../kspace.cpp:340)
  G vector (1/distance) = 0.37244387
  grid = 30 36 32
  stencil order = 5
  estimated absolute RMS force accuracy = 0.0035292113
  estimated relative force accuracy = 1.0628115e-05
  using double precision FFTW3
  3d grid and FFT values/proc = 7344 1152
Last active /omp style is kspace_style pppm/tip4p/omp
Neighbor list info ...
  update every 1 steps, delay 7 steps, check yes
  max neighbors/atom: 2000, page size: 100000
  master list distance cutoff = 10.8154
  ghost atom cutoff = 10.8154
  binsize = 5.4077, bins = 7 5 4
  1 neighbor lists, perpetual/occasional/extra = 1 0 0
  (1) pair lj/cut/tip4p/long/omp, perpetual
      attributes: half, newton on, omp
      pair build: half/bin/newton/tri/omp
      stencil: half/bin/3d/tri
      bin: standard
Setting up Verlet run ...
  Unit style    : real
  Current step  : 15500000
  Time step     : 2
  Walltime left : 9:59:59.94
Per MPI rank memory allocation (min/avg/max) = 10.63 | 10.63 | 10.64 Mbytes
Step Temp PotEng TotEng E_pair E_mol Press Lx Ly Lz Volume Pxx Pyy Pzz Pxy Pxz Pyz Enthalpy 
15500000    5.7417076   -6989.9694   -6975.1992   -6989.9694            0     9112.369    22.974908    21.098096    21.247205     10299.09    9212.3809    9071.7231    9053.0028    16.622899    50.796344    57.789143   -5606.5062 
15501000    3.0608792   -6997.1358   -6989.2619   -6997.1358            0    9113.2376    22.922462    21.109886    21.283873    10299.065    9359.3948    8989.7277    8990.5902     16.81458   -64.101394    17.323292   -5620.4418 
15502000    3.0037644   -6996.7915   -6989.0645   -6996.7915            0    9134.2889    22.916832    21.106641     21.28828    10297.084    9369.9647    8994.1766    9038.7253    120.90557   -29.424321    44.937884   -5617.3463 
15503000    3.0173156   -6996.3182   -6988.5563   -6996.3182            0     9159.034    22.979838    21.089481    21.240671    10293.927    9162.3913    9074.8282    9239.8824   -39.977239     50.93919    17.937565   -5613.5438 
15504000    2.9834222   -6996.5384   -6988.8638   -6996.5384            0    9137.7657    23.007442    21.081314    21.223216    10293.835    9001.6605     9164.431    9247.2056   -33.506662    14.732232   -63.506876   -5617.0565 
15505000    2.9903586   -6996.4602   -6988.7677   -6996.4602            0    9155.3064    22.995893    21.083223    21.233674     10294.67    9016.0264     9230.401    9219.4917   -66.817675   -19.007526   -70.967928   -5614.2156 
15506000    3.0356495   -6996.4609   -6988.6519   -6996.4609            0    9169.4439    22.929121     21.09854     21.28184    10295.537    9234.5594    9254.8107    9018.9616     2.496435    43.041279    78.522757   -5611.8613 
15507000     3.021798   -6997.0923   -6989.3189   -6997.0923            0    9159.7447    22.910227    21.104839     21.29773    10297.807    9363.5227    9083.8474    9031.8641    4.5979675    16.323714    105.50293   -5613.6814 
15508000     3.011448   -6996.4762   -6988.7295   -6996.4762            0     9177.479    22.953868    21.090895    21.266817    10295.641    9267.6024     9110.269    9154.5655   -5.8756988    38.299002     -22.4663   -5610.7185 
15509000    2.9797434   -6995.6243   -6987.9591   -6995.6243            0    9183.8382    23.005043    21.079787    21.223889    10292.343    9125.1763    9117.2229    9309.1154   -40.982561   -15.128656   -47.078945   -5609.4351 
15510000    3.0720679   -6996.2485   -6988.3458   -6996.2485            0    9169.1398    23.020781      21.0745    21.214665    10292.326    8959.9696    9221.9117     9325.538   -23.107427   -23.213813   -62.372934   -5612.0303 
15511000    2.9551854   -6996.3846   -6988.7826   -6996.3846            0    9150.5702    22.964012    21.093876    21.252928    10294.919    9146.8281    9155.6536    9149.2289   -9.4993181   -42.078612   -34.326553   -5614.9084 
15512000    2.9796715   -6996.4038   -6988.7388   -6996.4038            0    9151.8538    22.916845     21.10223    21.294188    10297.795    9237.1265    9250.4768     8967.958    100.79007    3.6943741   -18.384139   -5614.2879 
15513000    3.0799678   -6996.7831   -6988.8601   -6996.7831            0    9140.3975    22.924139    21.096643    21.292398     10297.48    9218.0014    9236.2861    8966.9052    51.679788    -72.35145    -3.591853   -5616.1718 
15514000    2.9596027   -6996.6579   -6989.0446   -6996.6579            0    9173.1683    22.973797    21.083983       21.254    10294.995    9116.4899    9210.1972    9192.8177   -30.125811   -14.915085   -23.021376   -5611.7673 
15515000    2.9894996   -6996.1921   -6988.5018   -6996.1921            0    9163.8445     23.01794    21.075097    21.218983    10293.441    9082.5297    9049.9745    9359.0292   -107.80441    2.2659139   -63.428712    -5612.832 
15516000    2.8791768    -6996.101   -6988.6944    -6996.101            0    9164.4823    23.005684    21.080753    21.224046    10293.177    9172.4415    9057.2392    9263.7661    -52.44699    30.051889    28.992548   -5612.9643 
15517000    3.0913037   -6996.6401   -6988.6879   -6996.6401            0    9167.2994    22.946684    21.100585    21.262684    10295.146     9179.833     9211.823     9110.242    19.654174    3.3044628    19.779967   -5612.2715 
15518000    2.9176752    -6997.005   -6989.4994    -6997.005            0    9142.2995    22.907883    21.112618    21.290974    10297.281    9249.1705    9216.5084    8961.2196    59.492217    5.7227266    30.130818   -5616.5519 
15519000    2.9754068   -6996.7647   -6989.1107   -6996.7647            0    9139.7192    22.929082    21.102783    21.278764    10296.101    9265.3995    9213.5995    8940.1586   -5.3211547   -47.992249    7.9492502   -5616.7081 
15520000    3.0688569   -6996.8761   -6988.9817   -6996.8761            0    9146.6139    22.984541    21.080298    21.247046    10294.639    9032.3178    9236.0262    9171.4978    1.6916525   -47.657136   -59.987501   -5615.7388 
15521000    2.8194286   -6996.2968    -6989.044   -6996.2968            0    9169.8455     23.02229     21.07013    21.220821    10293.852    8979.3845    9197.2063    9332.9458   -51.343892   -48.652316   -78.848413   -5612.4184 
15522000    3.0150026   -6995.9416   -6988.1857   -6995.9416            0    9195.5268    23.000623    21.079309    21.229619     10292.91    9207.9619    9012.0825    9366.5359    47.785845   -63.462099   -15.007424   -5607.8311 
15523000    3.0553069   -6996.8437   -6988.9841   -6996.8437            0    9151.0644    22.941223    21.099418    21.270437     10295.88    9318.3707    8953.6697     9181.153    49.460946   -29.743682    51.439906   -5614.9074 
15524000    3.1630194   -6996.4683   -6988.3316   -6996.4683            0    9150.9343    22.913165    21.103008    21.296292    10297.539    9283.8625    9137.6883    9031.2522    24.683365    21.458682    117.21206   -5614.0531 
15525000    3.0379362    -6996.435   -6988.6201    -6996.435            0    9165.9364    22.937318    21.092442    21.281886    10296.262    9114.5935    9370.0563    9013.1594    41.704979    46.840725     69.11493   -5612.2592 
15526000    3.0325946     -6996.42   -6988.6188     -6996.42            0    9134.0091    22.986798    21.081902    21.244514    10295.207    9014.8193    9278.6714    9108.5366   -132.83396    45.256871   -67.630059   -5617.1927 
15527000    3.0042844    -6996.032   -6988.3037    -6996.032            0    9160.6726    23.023175    21.072581     21.21747     10293.82    8980.8875    9219.1435    9281.9869   -75.931818    -4.673193   -79.110257   -5613.0595 
15528000    2.8594426   -6996.3923   -6989.0365   -6996.3923            0    9159.7968    22.990068     21.08637    21.234531    10294.014    9233.8484    8974.4289     9271.113    -39.42542   -11.866748   -25.471393   -5613.8979 
15529000    3.0017431   -6996.7208    -6988.999   -6996.7208            0     9152.291    22.934949    21.101982    21.273112    10295.609    9429.6976    8969.5128    9057.6625    64.067046    24.240018    100.95516   -5614.7742 
15530000    3.2308378   -6996.8885   -6988.5774   -6996.8885            0      9158.38    22.910965    21.105724    21.294601    10297.058    9344.2335    9108.7562    9022.1503    5.2044111    58.653355    132.71758   -5613.2449 
15531000     3.104136   -6996.4224   -6988.4372   -6996.4224            0    9158.9567    22.948711    21.094904    21.267914    10295.815    9123.2864    9201.8575    9151.7262    88.522965    21.688489    10.997705    -5613.184 
15532000    2.9704341   -6995.9177   -6988.2765   -6995.9177            0    9171.5327     23.00538    21.076497    21.227945    10292.854    8828.5905    9385.4655     9300.542   -59.334673    12.594261   -86.243808   -5611.5312 
15533000    2.9956808   -6996.0633   -6988.3571   -6996.0633            0    9166.5001    23.022304    21.074569    21.214207    10292.818    8782.2833     9298.005    9419.2119    31.344501   -89.493797   -78.325176   -5612.3719 
15534000    2.9538556   -6996.3955   -6988.7969   -6996.3955            0    9156.3017    22.971992    21.091628    21.247514    10294.775    9216.7806    9026.1917    9225.9328    48.231839   -55.193466   -51.448506   -5614.0813 
15535000    2.9270048   -6996.6018   -6989.0722   -6996.6018            0    9158.0128    22.915853    21.110047    21.284487    10296.471    9534.4067     8906.227    9033.4048    104.49888   -53.190567     52.07856   -5613.8732 
15536000     2.986916   -6996.5623   -6988.8787   -6996.5623            0    9176.6991    22.916861    21.111064    21.280285    10295.388     9436.915     8968.538    9124.6444   -17.598469    30.512175    85.754386   -5611.0187 
15537000     3.062463   -6996.3984   -6988.5204   -6996.3984            0    9181.9721    22.972043    21.089183    21.248588    10294.125    9132.8307    9291.2521    9121.8336   -43.312636    55.323284    21.549332   -5610.0378 
15538000    2.9091713   -6995.8626   -6988.3789   -6995.8626            0     9199.903    23.015427    21.073227    21.220698    10292.236    8871.7025    9500.5801    9227.4264   -156.81511     38.73541   -81.775929   -5607.4578 
15539000    2.9344777   -6996.0088   -6988.4601   -6996.0088            0    9178.7106    23.000932    21.075852    21.234161    10293.562    8868.5603    9448.0846    9219.4868   -55.301713    1.1565241   -97.387754   -5610.5425 
15540000    3.0249216   -6996.8212   -6989.0398   -6996.8212            0    9166.9747    22.936676    21.096459    21.278529    10296.311    9377.7592    9122.4196    9000.7455   -17.211932    8.3049184   -4.8795914   -5612.5165 
15541000    2.9628898   -6996.9874   -6989.3655   -6996.9874            0    9149.0002    22.904044     21.11122      21.2967    10297.643    9565.8861    8934.9102    8946.2044    37.785324   -22.854117    57.666142   -5615.3636 
15542000    2.9128956   -6996.2647   -6988.7715   -6996.2647            0    9185.2628     22.94432    21.097687    21.267189    10294.853    9349.5393    9050.6717    9155.5774    10.677782   -51.608149   -60.223659   -5609.6973 
15543000    3.0653736   -6996.1479   -6988.2625   -6996.1479            0    9199.4514    23.004363    21.084019    21.220508    10292.465    9043.1826    9127.8267    9427.3448    -18.39198   -64.093508   -31.866621   -5607.3784 
15544000    2.9682631   -6995.8588   -6988.2232   -6995.8588            0    9192.6152    23.016822    21.077208    21.215673    10292.367    8892.7289    9283.7873    9401.3295    56.537844   -9.9972172    -86.59145   -5608.3784 
15545000    2.7787837   -6996.6161   -6989.4678   -6996.6161            0    9170.3582    22.965225    21.088592    21.256623    10294.673    8973.9583      9334.46    9202.6564     62.02838   -35.099612   -46.367712   -5612.6554 
15546000    2.9972421   -6996.7354   -6989.0252   -6996.7354            0    9160.1658    22.911454    21.105779    21.296319    10298.135    9247.6894    9288.1177    8944.6901    78.917199     12.00939    61.604449   -5613.2806 
15547000    3.1025489   -6997.3819   -6989.4008   -6997.3819            0    9156.2669     22.92274    21.107338    21.281479    10296.788     9411.133    9015.8613    9041.8065    31.587311    1.6253288    37.462058   -5614.4217 
15548000    3.0072264   -6996.0489    -6988.313   -6996.0489            0    9184.1669    22.984795    21.089311    21.234802    10293.219    9264.6653    9039.3932    9248.4422   -123.01719    84.837135   -23.259303   -5609.6222 
15549000    3.0579068   -6996.0566   -6988.1903   -6996.0566            0    9143.5877    23.018489    21.076596    21.216608    10293.267    9083.8416    9123.8785    9223.0432   -129.09012    44.961525   -14.003682   -5615.5847 
15550000    3.0637602   -6996.5895   -6988.7081   -6996.5895            0    9124.3504    22.989291      21.0872    21.235693    10294.634     9007.331    9232.0686    9133.6516   -40.731793    61.829847   -9.6324536   -5618.8085 
15551000    3.0250974   -6996.2907   -6988.5088   -6996.2907            0    9172.1179    22.925682    21.104098    21.279826     10295.73    9207.7216    9333.9325    8974.6997   -5.4178484    47.895833    15.741724   -5611.2909 
15552000    3.0156505   -6997.0857   -6989.3281   -6997.0857            0     9177.501    22.910189    21.102057    21.298928    10297.012    9332.0268    9193.9067    9006.5696    69.756007   -20.369201    48.345862   -5611.1303 
15553000    3.1167688   -6997.0252   -6989.0075   -6997.0252            0    9187.3948    22.954805     21.08994    21.267315    10295.836    9266.2065    9124.3326    9171.6454    10.041169   -35.973877    23.370895   -5609.4815 
15554000    3.0450818   -6996.2498   -6988.4165   -6996.2498            0    9149.7393    23.008816    21.076361    21.225126    10292.958     9030.792    9100.8344    9317.5916    23.389058   -47.482664   -85.974036   -5614.9287 
15555000    2.9897888   -6996.0929   -6988.4018   -6996.0929            0    9172.8047     23.01924    21.074586    21.216215     10292.43    9017.2532    9140.1963    9360.9645     42.28445   -108.54473   -71.029488   -5611.5222 
15556000     3.228551   -6996.5896   -6988.2844   -6996.5896            0    9176.9912    22.970987    21.090826    21.248255    10294.293    9169.1797    9135.3312    9226.4625    77.999558   -53.429533   -27.533549   -5610.5271 
15557000    3.0917972   -6996.7133   -6988.7599   -6996.7133            0    9153.5352    22.920877    21.107616    21.281908    10296.295     9248.077    9116.8569    9095.6715    74.628167   -7.3782095     50.80725   -5614.2568 
15558000     2.998351   -6997.1358   -6989.4228   -6997.1358            0    9125.2851    22.921326    21.105212    21.287568    10298.062     9162.407    9280.3424    8933.1059    32.758344   0.40789238     35.94597   -5618.9266 
15559000    3.0241758   -6996.6574   -6988.8778   -6996.6574            0    9159.1912    22.959484     21.09246    21.260433    10295.832    9231.3852    9207.3896    9038.7989   -58.500714     23.91249    24.402305   -5613.5872 
15560000    2.9196444   -6996.4566    -6988.946   -6996.4566            0    9164.0428    23.008387    21.079866    21.220767    10292.363    9112.9238    9070.2531    9308.9516   -96.363032     74.66856    -40.46458   -5613.3906 
15561000    2.8502837   -6995.7428   -6988.4106   -6995.7428            0    9195.5636    23.015151     21.07745    21.216014    10291.903    9122.3876    9105.3031         9359   -143.69248    62.778667   -34.576708   -5608.1855 
15562000    3.0814022    -6996.617   -6988.6902    -6996.617            0    9154.8688    22.975906    21.084561    21.251431    10294.977    9166.7962    9174.6944    9123.1157   -41.508684    68.070077    74.235445   -5614.1629 
15563000    3.0492962   -6996.2089   -6988.3648   -6996.2089            0    9151.7739    22.926643    21.103995    21.279707    10296.054    9200.8338    9211.0132    9043.4748    82.490267   -14.585991    62.037148   -5614.1584 
15564000    2.8892704   -6996.7419   -6989.3094   -6996.7419            0     9144.269    22.909194    21.111086    21.292133    10297.684    9214.8851    9131.7006    9086.2213    95.909673   -26.043345    42.186075   -5616.0125 
15565000    2.9259081   -6997.0283   -6989.5016   -6997.0283            0    9155.8403    22.950756    21.094192    21.267213    10296.045    9195.9736    9096.1583    9175.3889    57.347866   -21.508833    4.7516147   -5614.6857 
15566000    2.9443845   -6995.6564   -6988.0822   -6995.6564            0    9176.3298    23.006903    21.075272     21.22755    10292.745    9038.3462    9161.9269    9328.7162    41.673605   -43.663719    -51.20818   -5610.6313 
15567000    2.8980375   -6996.1949   -6988.7399   -6996.1949            0     9169.596    23.018367    21.073686    21.216493    10291.735     8987.369    9111.1535    9410.2654    15.411291   -45.141334   -55.456681   -5612.4348 
15568000    3.0287889   -6996.8209   -6989.0295   -6996.8209            0    9153.3272    22.976633    21.091523    21.243167    10294.697     9128.622    9067.5874    9263.7723    39.822857    51.180985    52.524253   -5614.7709 
15569000    2.8635533   -6996.6991   -6989.3328   -6996.6991            0    9179.9669    22.923118    21.103979    21.281192    10295.181    9210.1523    9207.8736    9121.8746    78.106119    1.7134645    152.64755   -5611.0098 
15570000    2.9329035   -6996.6314   -6989.0867   -6996.6314            0    9182.2966    22.918887    21.105795    21.286637      10296.8    9160.2076    9297.9243    9088.7579    42.934646    85.460617    111.67111   -5610.1971 
15571000    3.0785717   -6996.6755   -6988.7561   -6996.6755            0    9157.9305    22.965554    21.089535    21.255852    10294.908    9206.9722    9202.2238    9064.5954   -78.315949    86.507024    60.572121   -5613.7783 
15572000    2.9850222   -6995.5274   -6987.8486   -6995.5274            0    9170.2809    23.016711    21.076393    21.217497    10292.804    9152.6791    9076.4519    9281.7117   -127.72575    38.928256   -38.505407   -5611.2979 
15573000    2.9296992   -6996.4972   -6988.9607   -6996.4972            0    9136.7336    23.004755    21.077739    21.229792    10294.076    9148.1332    9032.5854    9229.4822   -44.327781   -26.593609   -22.098017   -5617.2762 
15574000    3.0777842   -6996.6979   -6988.7805   -6996.6979            0    9157.9779    22.945697    21.093567    21.272082    10295.828    9364.4138    9134.9886    8974.5312    31.883172   -25.748715     44.30236   -5613.6727 
15575000    3.0332826    -6996.551   -6988.7481    -6996.551            0    9169.8226    22.910494    21.103516    21.296224    10296.554    9218.1297    9312.2625    8979.0756    97.886531   -38.639588    14.428137   -5611.7647 
15576000    3.0016995   -6996.5861   -6988.8644   -6996.5861            0    9187.7901    22.936367    21.096374    21.277848    10295.801    9155.2178     9245.303    9162.8494    54.137425    33.968737    54.916438   -5609.2837 
15577000    2.8924301   -6996.0563   -6988.6157   -6996.0563            0    9206.1661    23.003922    21.075915    21.230297    10293.057    9013.3656    9198.6985    9406.4343    23.882198   -1.5143427  0.069993888   -5606.6442 
15578000    2.9632414   -6995.7276   -6988.1048   -6995.7276            0    9184.6532    23.014253    21.076577    21.219559    10292.795    9004.6169    9093.8127      9455.53    42.299142   -49.484617   -62.501642   -5609.3978 
15579000    2.8953366   -6996.5693   -6989.1212   -6996.5693            0    9161.7943    22.963032    21.096725    21.251634    10295.243    9282.8782    9003.1238     9199.381    48.957033     -16.1934    31.673896   -5613.5185 
15580000    3.2112458   -6996.7843   -6988.5235   -6996.7843            0    9157.4749    22.908023    21.114421    21.287159    10296.378    9475.5703    8940.9555    9055.8987    68.480113    9.0859394    61.432341   -5613.4177 
15581000    2.8807377   -6996.5448   -6989.1343   -6996.5448            0    9143.1314    22.925418    21.110228     21.27513    10296.329    9213.5358    9234.7588    8981.0997    15.047314    19.649964    23.669795   -5616.1889 
15582000    2.8743052   -6996.0511   -6988.6571   -6996.0511            0    9156.2935      22.9875    21.084886    21.237402    10293.531    8889.9285    9444.6961    9134.2559   -75.175143    50.998703   -100.46357   -5614.1089 
15583000    2.8556834   -6995.7558   -6988.4097   -6995.7558            0    9178.3268    23.022736    21.073332    21.213135    10291.887    8860.5205    9404.8244    9269.6354   -102.98017    81.318766   -63.309891   -5610.7739 
15584000    3.1453848   -6996.2216   -6988.1303   -6996.2216            0    9152.7473    22.985511    21.089181    21.238252    10295.149    9206.4836    9013.3568    9238.4014   -106.68851    20.229021   -36.014017   -5613.8985 
15585000    2.8783347   -6996.3902   -6988.9859   -6996.3902            0    9198.3062    22.917857    21.109508    21.281939    10295.876    9545.2458    8900.6541    9149.0186    27.153885    33.359876    -16.48683   -5607.8161 
15586000    2.9714348   -6996.7204   -6989.0766   -6996.7204            0     9179.909    22.917876    21.105169    21.287326    10296.374    9402.0897    9083.8144    9053.8228     56.10963    44.193665     146.4774   -5610.6026 
15587000    2.9168489   -6996.4802   -6988.9768   -6996.4802            0    9179.7067    22.966425    21.089459    21.253153    10293.953    9034.8203    9303.5176    9200.7823   -2.3284494    15.594528    15.469637   -5610.8573 
15588000    2.9215077   -6995.9243   -6988.4089   -6995.9243            0    9180.4901    23.018127    21.078175    21.213287    10292.265    8820.7677    9361.5972    9359.1055    19.680991   -5.2820905   -172.16318   -5610.3978 
15589000    2.7995734   -6996.2787   -6989.0769   -6996.2787            0     9162.814     23.00248    21.077315    21.230656     10293.27    8970.3815    9256.9458    9261.1147   -19.679934   -87.947406   -96.095576   -5613.5848 
15590000    2.8754995   -6996.4062   -6989.0091   -6996.4062            0    9172.2325    22.946504    21.094585    21.270295    10295.822    9225.0574    9156.3792    9135.2608    23.720908     9.915462    19.245698   -5611.7617 
15591000    2.8484084   -6996.6965   -6989.3692   -6996.6965            0    9154.7682    22.909359    21.106105     21.29628    10297.334    9559.3294     8923.152    8981.8233    35.104899   -53.563653    55.709456   -5614.5423 
15592000    3.0265445   -6996.7759   -6988.9903   -6996.7759            0    9150.9352    22.938821    21.096567    21.278066    10297.102    9460.5283    8956.1266    9036.1507   -42.143114   -21.637197   -15.094753   -5614.7699 
15593000    3.0214467   -6996.2716   -6988.4992   -6996.2716            0    9213.4312    22.993727    21.082825    21.230593    10292.013    9036.0373    9265.8424     9338.414    -75.89447   -16.283991   -24.624192   -5605.5774 
15594000    3.0283388    -6995.896   -6988.1058    -6995.896            0    9194.2512    23.023481     21.07438    21.210777    10291.587    8704.6307    9486.5927    9391.5302   -48.593723    121.78157   -12.040094     -5608.12 
15595000    2.9092615   -6996.3613   -6988.8774   -6996.3613            0    9175.8433    22.994159    21.085486    21.229624    10293.035     8942.339    9387.7158    9197.4751   -34.839818    42.508232    6.5927242   -5611.4608 
15596000    3.2118428   -6996.6466   -6988.3843   -6996.6466            0    9178.9554    22.935142    21.103219    21.269284    10294.446    9320.5351    9154.6543    9061.6768    21.892972     25.42969     21.95938   -5610.3115 
15597000    2.9534528   -6996.7703   -6989.1727   -6996.7703            0    9162.7077    22.908267    21.116324    21.286706    10297.197    9529.5421    8860.5078    9098.0733    106.58637   -51.256459    49.864724   -5613.1718 
15598000    2.9218795   -6996.9312   -6989.4148   -6996.9312            0    9165.0087    22.930692    21.105356    21.274274    10295.907    9441.0723    8938.2186    9115.7353    2.1273564    16.563528    19.361846   -5613.2408 
15599000    2.9955087   -6996.3242   -6988.6185   -6996.3242            0    9147.2853    22.994809    21.080043     21.23714    10294.312     8996.402    9246.1046    9199.3492   -8.3821924     -64.4835   -5.3253662   -5615.3184 
15600000    2.8743833   -6995.7968   -6988.4026   -6995.7968            0     9167.435     23.02611    21.065547    21.216813    10291.376    8779.8011    9344.8719    9377.6321   -48.277225   -48.094748    -129.8949   -5612.4699 
15601000    2.9037084   -6996.4127    -6988.943   -6996.4127            0    9175.4412    22.999143    21.075685    21.236048    10293.594    8957.8844    9298.3696    9270.0695    18.241014   -11.381494   -72.473825   -5611.5119 
15602000    2.9654793   -6996.7023   -6989.0738   -6996.7023            0    9168.1958    22.934488    21.098959    21.277746     10296.17    9237.4648     9163.025    9104.0975    62.621087   -13.241369    28.612963    -5612.386 
15603000    3.1503597    -6996.846   -6988.7419    -6996.846            0    9132.9241    22.905204    21.110089    21.296941    10297.729    9363.0091    9119.6343    8916.1288    61.144949    -25.41742    65.262867   -5617.1428 
15604000    2.9463488   -6996.3773    -6988.798   -6996.3773            0    9157.6734    22.937026    21.100474    21.273412    10295.951     9450.515    8941.9573    9080.5478   -6.5652066   -32.562013   -34.998095   -5613.7194 
15605000     2.914203   -6996.1511   -6988.6545   -6996.1511            0    9145.3942    23.003937     21.08054    21.227527     10293.98    9125.6621     9054.756    9255.7646   -30.522433   -33.025274   -77.250696   -5615.6827 
15606000    2.9531611   -6996.0832   -6988.4864   -6996.0832            0    9188.4306    23.022908    21.072342    21.213607    10291.709     8877.887    9341.5511    9345.8538   -97.488048     39.16151   -27.092148   -5609.3579 
15607000    2.8221078   -6996.2356   -6988.9759   -6996.2356            0    9169.0931    22.975411    21.084995    21.250154    10294.348    8982.5486    9459.3329    9065.3978 -0.0093378695    48.594117   -1.0430575    -5612.397 
15608000    3.0769111   -6997.1008   -6989.1857   -6997.1008            0    9137.8133    22.921361    21.103677    21.287354    10297.225    9280.9706    9160.8393      8971.63    24.930618     3.960337    26.471525   -5616.9194 
15609000    2.8977744   -6996.7242   -6989.2699   -6996.7242            0    9172.3603    22.914615    21.100705    21.295245     10296.56    9468.5161    9052.3781    8996.1869    57.194035   -41.028838     14.68155   -5611.9045 
15610000    2.9389748   -6996.5407   -6988.9803   -6996.5407            0    9176.7171    22.964713    21.085081    21.261525    10295.103    9382.6132    8997.4476    9150.0904   -92.235491   -6.4612239    10.001435   -5611.1557 
15611000    2.9651304   -6996.0914   -6988.4638   -6996.0914            0    9182.2439    23.010171    21.074627    21.226131    10293.204    9112.2562    9201.3616     9233.114   -58.199959   -17.754483   -37.457545   -5610.0636 
15612000    3.0646996   -6996.4882   -6988.6045   -6996.4882            0    9150.9458    23.006733    21.078024    21.226314    10293.414    8937.0088    9237.1181    9278.7104   -26.218974    -9.055838   -120.15496   -5614.8748 
15613000    2.9227761    -6996.196   -6988.6773    -6996.196            0     9155.322    22.951201    21.098202    21.260736    10295.067    9128.3144    9226.2692    9111.3824    20.921842   -26.806824     1.569536   -5614.0699 
15614000    2.9871756   -6996.4088   -6988.7244   -6996.4088            0    9175.5935    22.910607    21.108312    21.291119    10296.476    9245.9906    9230.6685    9050.1215    82.442248    39.021203    52.477416   -5610.8849 
15615000    3.0492445   -6996.7602   -6988.9162   -6996.7602            0    9151.6488    22.935087     21.09941    21.278375    10296.963    9164.6046    9148.5894    9141.7524      89.9084   -36.487672    55.662028   -5614.6072 
15616000    2.8428407   -6996.3044   -6988.9914   -6996.3044            0     9177.513    22.991468    21.085411    21.233475    10293.661     9145.578    9026.3736    9360.5874   -44.016885    17.963926    3.9105791   -5611.2403 
15617000    2.6541824   -6996.0535   -6989.2258   -6996.0535            0    9199.8838    23.014437    21.080457    21.214225    10292.184    9139.2487    9021.6481    9438.7544   -37.805528   0.18850847    -28.35021   -5608.3145 
15618000    3.0463611   -6996.8422   -6989.0056   -6996.8422            0    9158.0303    22.975998    21.092386    21.242636    10294.577    9151.9708    9104.9837    9217.1365   -20.697359    95.257045   -4.0055361    -5614.057 
15619000    2.8918446   -6996.3834   -6988.9443   -6996.3834            0     9178.503    22.922663    21.104758    21.280463    10295.004     9196.289    9370.1456    8969.0744    65.745064    31.329654     96.93594   -5610.8648 
15620000    2.8632211   -6996.5268   -6989.1614   -6996.5268            0    9134.3072    22.920398    21.107057    21.285661    10297.623    9144.9533    9330.9565    8927.0119    77.403436   -40.875673    64.338135   -5617.3687 
15621000    3.0953437   -6997.0313   -6989.0687   -6997.0313            0    9148.2876    22.967751    21.093593     21.24987    10294.976    9148.5933    9124.8099    9171.4597   -72.139388    9.6076568   -55.464546   -5615.5296 
15622000    3.0547727   -6995.7363   -6987.8781   -6995.7363            0    9180.0245    23.012113    21.077097    21.219483    10292.055    9189.7718    9063.2654    9287.0363   -82.601385    5.7034077   -68.480888   -5609.9651 
15623000    2.8579772    -6996.101    -6988.749    -6996.101            0    9168.3157    23.001031    21.080364    21.229757    10293.675    9184.8794    9061.5712    9258.4966   -5.9226617   -59.995534   -51.166336   -5612.3768 
15624000    3.0417556   -6996.6981   -6988.8734   -6996.6981            0    9148.1287     22.94705    21.091386    21.274653    10296.615    9309.2032    9083.7027    9051.4803    44.038092   -70.463457   -11.397196   -5615.1395 
15625000    3.0573503   -6996.6357   -6988.7708   -6996.6357            0    9148.7093    22.915041     21.10135    21.295324    10297.105    9326.0066    9093.6198    9026.5016    96.902873   -44.493591    50.078552   -5614.8843 
15626000    2.9574445   -6996.6032   -6988.9954   -6996.6032            0    9156.6549    22.934651    21.098015    21.277609    10295.716    9160.9623    9172.6706    9136.3319    35.123586    2.0917535    46.434648   -5614.1011 
15627000    2.9733843   -6996.4137   -6988.7648   -6996.4137            0    9166.2119    22.990511    21.081154    21.238743    10293.708    8891.5748     9318.739    9288.3221    59.247596   -52.461726     -20.9133   -5612.7041 
15628000    3.0394244    -6996.242   -6988.4233    -6996.242            0    9163.5563    23.017315    21.076536    21.215666    10292.255    8918.5611    9246.8422    9325.2657     1.866827    2.4660533    -26.20078   -5612.9553 
15629000    2.9789875   -6995.9526   -6988.2893   -6995.9526            0    9166.3236    22.999296     21.08724    21.224193    10293.557    9172.4032    9018.9207     9307.647   -134.66155    49.651273   -7.8491987   -5612.2319 
15630000    2.8482673   -6996.9023   -6989.5753   -6996.9023            0    9141.2989    22.942087    21.104651    21.263864    10295.638    9387.6768    8874.1449     9162.075    46.126779    -1.489197    5.6795275   -5616.9972 
15631000    2.9885766   -6997.0953   -6989.4073   -6997.0953            0    9152.7762    22.911221    21.108667    21.288442     10295.63    9291.8646    9214.0593    8952.4046    66.607071    35.127034    85.929914    -5615.107 
15632000    3.0347063   -6996.4896    -6988.683   -6996.4896            0    9159.8108     22.93046    21.099934    21.281904    10296.849    9129.3093    9330.4515    9019.6715   -5.2954221    31.697872    31.158427   -5613.1635 
15633000    3.0203531   -6996.3333   -6988.5636   -6996.3333            0    9176.5439    22.975506    21.082353     21.25301    10294.484    9063.8822    9246.7309    9219.0188   -19.594423     19.79433   -23.549135   -5610.8478 
15634000    2.9141197   -6996.3934    -6988.897   -6996.3934            0    9181.6688    23.015911    21.068299     21.22474    10292.006    9029.9691    9178.5276    9336.5099   -155.14029    21.162942   -77.243023   -5610.7437 
15635000     2.862502    -6996.423   -6989.0593    -6996.423            0    9153.3261    23.008073    21.072464    21.231124     10293.63    9054.6994    9161.3749    9243.9041   -64.851051   -92.864351   -111.34803   -5614.9434 
15636000    3.1398454   -6996.7113   -6988.6343   -6996.7113            0    9144.9507    22.960908    21.090975    21.261014    10296.027    9166.7346     9176.997    9091.1206    62.950083   -59.616482   -4.9128095   -5615.4559 
15637000    3.0597456   -6996.8048   -6988.9338   -6996.8048            0     9166.975    22.910284    21.109876    21.289129    10296.131    9324.3205    9117.0762    9059.5282    88.604567    61.835441    67.898582   -5612.4345 
15638000    2.8146179   -6996.4193   -6989.1789   -6996.4193            0    9184.0522    22.918578    21.105821    21.284217    10295.504    9279.2713    9097.6022    9175.2832    115.60875    7.3886643    41.788187   -5610.1992 
15639000    3.0595624   -6996.8419   -6988.9714   -6996.8419            0    9162.1145    22.971249    21.086568    21.252674    10294.473     8955.458    9270.9501    9259.9355    118.61071    16.292427    64.754168   -5613.4235 
15640000    2.9043139    -6995.825   -6988.3539    -6995.825            0    9191.6735    23.020434    21.071656    21.216386    10291.616    8832.7358    9321.9804    9420.3044     8.721429    32.132544    43.318868   -5608.7511 
15641000    2.9331811   -6996.3919   -6988.8465   -6996.3919            0    9166.8853    23.010603    21.079557    21.221341    10293.482    9039.7389    9039.6575    9421.2596   -12.891799    38.337087    33.152679   -5612.7148 
15642000    3.0144787   -6996.7251   -6988.9705   -6996.7251            0    9168.8018     22.95414    21.092808    21.263883    10295.276    9411.2037    8955.9328     9139.269   -55.711692    58.740715    63.932523   -5612.3112 
15643000      2.97394   -6996.7009   -6989.0506   -6996.7009            0    9141.2651    22.919941    21.100208    21.290477    10296.405    9393.8492    9140.0716    8889.8744    29.439093    45.903012    62.902528   -5616.3753 
15644000    2.9530676   -6996.7305    -6989.134   -6996.7305            0    9134.9755     22.93016    21.099063    21.282406    10296.532    9146.6841    9355.6608    8902.5816     6.383202   0.43385548    21.682282   -5617.3862 
15645000    3.1258325   -6996.5695   -6988.5285   -6996.5695            0    9130.6269    22.975823    21.090828    21.245177     10294.97    9029.8052    9223.0503    9139.0252   -41.080736   -41.395495   -39.207608   -5617.6418 
15646000    2.8899401   -6995.8958   -6988.4616   -6995.8958            0    9175.1721    23.007169     21.08407    21.216991    10292.039    9026.6788    9135.7363     9363.101   -92.958959   -15.678695   -120.19072    -5611.279 
15647000    2.9640699   -6996.5406   -6988.9158   -6996.5406            0    9181.3526    22.994328    21.085308    21.230052    10293.231    9064.5335    9135.2003    9344.3241    14.295391    -39.44138   -85.293911   -5610.6458 
15648000    2.8479483   -6996.6769   -6989.3507   -6996.6769            0    9165.2782    22.945444    21.094645    21.271837    10296.122    9215.7703    9263.9692     9016.095    68.724949   -12.655827    46.123665   -5613.1074 
15649000    3.0624796   -6996.6637   -6988.7857   -6996.6637            0    9157.8886    22.909949    21.102805    21.298963    10297.286    9404.9049    9056.7264    9012.0346    24.110657    56.201098    76.260714   -5613.4966 
15650000    2.9737014   -6996.9613   -6989.3116   -6996.9613            0    9169.9516    22.930232    21.099747    21.281439     10296.43    9397.3218    8944.6372    9167.8958    50.069428    -80.26412    50.179142   -5612.3254 
15651000    3.0331648   -6996.4955   -6988.6929   -6996.4955            0     9154.802    22.970643    21.086463     21.25432    10294.947    9087.0494    9162.3835    9214.9732    20.238373   -82.174594   -53.699859   -5614.1796 
15652000    2.8551081   -6996.1777   -6988.8331   -6996.1777            0    9167.5955     23.01202    21.072915     21.22449    10292.399    8826.7145     9467.354     9208.718    43.320166   -48.936313   -69.382929   -5612.7395 
15653000    3.0128193   -6995.6847   -6987.9344   -6995.6847            0    9177.9624    23.015157    21.084953    21.206128    10290.773    8981.3126     9218.783    9333.7915   -35.754064    49.556883     -53.0493   -5610.5025 
15654000    2.8656684   -6995.9951   -6988.6233   -6995.9951            0    9164.4295    22.979532    21.093772    21.235695    10293.472    9172.4049    9111.6419    9209.2416   -18.681682    56.999832   -19.436095   -5612.8616 
15655000    2.9076507   -6996.8304   -6989.3506   -6996.8304            0    9157.5455    22.935635    21.106991    21.268565     10296.16    9337.3359    8994.1996    9141.1011    6.7689916    40.647808    74.286843   -5614.2634 
15656000    2.8292765   -6997.0202   -6989.7421   -6997.0202            0    9162.5893    22.908893     21.10691    21.294305    10296.562    9360.8362    9133.9422    8992.9894    50.873422    71.728826    122.94432   -5613.8437 
15657000     2.929466   -6996.9369    -6989.401   -6996.9369            0    9150.9407    22.920841    21.097845    21.293915    10297.319    9356.4489    9129.9371    8966.4361   -29.078636    29.941609         60.6   -5615.1508 
15658000    2.9133005   -6996.7831   -6989.2888   -6996.7831            0    9153.4793    22.965866    21.086422    21.259286    10295.191    9184.8306    9134.5481    9141.0593   -104.29338 -0.011299298   -65.889449   -5614.9415 
15659000    2.9269866   -6996.0181   -6988.4886   -6996.0181            0    9176.1705    23.014014    21.069886    21.226204    10292.643    8915.2208    9303.0638    9310.2269   -74.580322   -4.1565435   -26.925372   -5611.0752 
15660000     2.891875    -6996.131   -6988.6918    -6996.131            0    9174.3912    23.013032    21.076489    21.220966    10292.888    8802.4214    9394.4267    9326.3254    5.7412697   -3.6489091   -38.680738   -5611.5128 
15661000    2.8995967   -6996.6292   -6989.1701   -6996.6292            0    9190.1085    22.975638    21.091178    21.240428    10292.756    9091.6645    9154.1278    9324.5334    49.552539      -20.435    20.662857   -5609.6495 
15662000    3.0278757   -6996.8494   -6989.0604   -6996.8494            0    9159.3296    22.916365    21.112048    21.280932    10295.957    9431.7122    8895.3729    9150.9038    106.58754    -23.88178    36.918972   -5613.7323 
15663000    2.9176441   -6996.5719   -6989.0665   -6996.5719            0    9177.9087    22.909738    21.111841    21.287755    10296.179     9444.087    8990.6906    9098.9483    104.23055   -26.361861    48.548913   -5610.9189 
15664000    2.9026447    -6996.881   -6989.4142    -6996.881            0    9150.7682    22.941952    21.098169    21.271414     10296.07    9162.6657    9200.9033    9088.7357    57.751274   -8.3649119    9.3597248   -5615.3566 
15665000     2.914399   -6996.3977   -6988.9006   -6996.3977            0    9146.7913    22.990801    21.080981     21.23919    10293.969    9014.2495    9296.7218    9129.4025   -40.182655   -13.713356   -12.029611   -5615.7204 
15666000    2.9654563   -6995.9525    -6988.324   -6995.9525            0    9135.9081    23.016645    21.076066    21.218562    10293.131    8935.4731    9215.1192    9257.1318    -120.1243   -12.735178   -133.06312   -5616.8893 
15667000    3.0372571   -6996.3185   -6988.5053   -6996.3185            0    9183.6283    22.998564    21.085763    21.223628    10292.234    9050.4896    9255.3144    9245.0809   -78.565707    20.844792   -84.680744   -5610.0273 
15668000    2.9948749   -6996.1841     -6988.48   -6996.1841            0    9161.5499    22.952546    21.099244    21.259015    10295.345    9330.6999    9101.3568    9052.5931     -54.4145    34.548259    101.82365   -5612.9004 
15669000     3.152685   -6996.4905   -6988.3805   -6996.4905            0    9178.5548     22.90679    21.110927    21.291837    10296.382    9530.6113    9018.4235    8986.6295     55.26222    106.03365    117.93636   -5610.1087 
15670000    2.9825445   -6997.0207   -6989.3483   -6997.0207            0    9154.4032    22.910423    21.111051    21.289629    10297.008    9444.7448    8969.7997     9048.665     31.91354    16.125264    72.115112   -5614.6196 
15671000    3.0934298   -6997.0492   -6989.0915   -6997.0492            0    9159.1078    22.960061    21.090135    21.260643    10295.058    9118.7433    9171.9928    9186.5872    24.879174    1.8723672    3.1594033   -5613.9168 
15672000    2.9366202   -6996.2505   -6988.6962   -6996.2505            0    9157.3561    23.014179    21.072383     21.22534    10293.517    8758.3606    9355.8098    9357.8978    14.691067   -60.206271     -54.8701   -5613.9903 
15673000    2.8477347    -6996.233   -6988.9074    -6996.233            0    9133.2373    23.026476    21.068609    21.217163    10293.206    8735.5407     9331.876    9332.2952    57.308828   -48.231316   -127.14366   -5617.8637 
15674000     2.972499   -6996.8285   -6989.1819   -6996.8285            0    9139.4484    22.986891    21.084834    21.239944    10294.465    9150.2046    9047.2803    9220.8601    9.2128375   -96.922164   -45.494459    -5617.038 
15675000    3.0984571   -6996.9605   -6988.9899   -6996.9605            0    9149.2492    22.929739    21.104658    21.276732    10296.328    9398.9438    8887.7797    9161.0241    85.156197   -36.573676   0.25035646    -5615.126 
15676000    2.8158398   -6996.5485    -6989.305   -6996.5485            0    9169.5701    22.905321    21.111381    21.292793    10296.406    9474.3653    9020.2807    9014.0642    28.953284  -0.19642614    140.49945   -5612.3793 
15677000    3.1248225   -6996.5075   -6988.4691   -6996.5075            0    9165.1701    22.928567    21.103056    21.277946    10295.608     9299.143     9146.194    9050.1734   -55.536112    75.413912     118.9609   -5612.3107 
15678000    2.9258877   -6996.1237    -6988.597   -6996.1237            0    9170.0553    22.990808    21.080189     21.23938    10293.677    8947.0235    9371.8936    9191.2488   -72.759424    79.195622   -12.878803   -5611.9633 
15679000    2.8815808   -6995.9029   -6988.4902   -6995.9029            0    9178.5897    23.021473    21.071656    21.217259    10292.504    8863.6244    9376.8769    9295.2678   -218.10799    83.339035   -62.421498   -5610.7323 
15680000    3.1005517    -6996.666     -6988.69    -6996.666            0    9149.4671    22.991463     21.08253    21.237239    10294.077    9030.4708    9250.0022    9167.9282   -3.1665795    10.249415   -57.698118   -5615.0938 
15681000     2.978183   -6996.7488   -6989.0876   -6996.7488            0    9151.4064    22.937136    21.099904    21.273282    10295.659    9366.8205    9057.2632    9030.1354    18.164022   -29.697461    24.801366    -5614.989 
15682000    3.0298731   -6996.6272   -6988.8331   -6996.6272            0    9143.3036    22.908098    21.110329    21.292381    10296.942    9507.6155    8939.0469    8983.2485    151.13725   -104.58722    31.221095   -5615.7801 
15683000    3.0243705   -6996.8103   -6989.0303   -6996.8103            0    9165.5744    22.940467    21.102538     21.26708    10295.437    9297.4275    8957.9026    9241.3932    87.412505   -56.140703   -35.111508    -5612.834 
15684000    2.9077942   -6996.2724   -6988.7923   -6996.2724            0     9195.965    23.002412    21.080023    21.226803    10292.694    8914.4283    9286.6651    9386.8015    73.970422    -69.83762    3.2522047   -5608.4008 
15685000    2.9882261   -6995.8672   -6988.1802   -6995.8672            0    9177.8174    23.022139    21.071038    21.217476    10292.606    8678.0729    9427.2863    9428.0928    12.172824    22.617779    -50.13369   -5610.5247 
15686000    3.2110401   -6996.8906   -6988.6304   -6996.8906            0    9162.6189    22.987156    21.083619     21.24039    10294.207    8964.5979    9255.5939    9267.6649    83.065263   -32.365605   -38.256917   -5613.0423 
15687000    2.9916661   -6997.1903   -6989.4944   -6997.1903            0    9157.5207    22.922251    21.103562    21.285079    10296.469    9447.1333    9068.5318    8956.8969   -6.7158847    32.677827    78.024102   -5614.3696 
15688000    3.0325725   -6996.6642   -6988.8631   -6996.6642            0    9137.0537    22.908648    21.107722    21.296444    10297.882    9507.3086     9017.086    8886.7664     4.961143    70.513821    75.664194   -5616.6234 
15689000    2.8742911   -6996.6026   -6989.2087   -6996.6026            0    9158.8086     22.95225    21.095463    21.262874    10295.235    9384.6581    9086.3681    9005.3995   -92.506674    107.16541    46.265808   -5614.0553 
15690000    3.1087956   -6995.7681   -6987.7709   -6995.7681            0    9155.8889    23.006715    21.074058    21.229098    10292.819    9117.9313    9201.0816    9148.6538   -129.08871   -3.1692183   -51.036214   -5613.3786 
15691000    3.0542633   -6995.9472   -6988.0903   -6995.9472            0    9162.0789    23.016449    21.075896    21.217235    10292.317    8863.6427    9306.0228    9316.5711   -71.656265    52.391554   -111.55332   -5612.8358 
15692000    3.0876528   -6996.5371   -6988.5943   -6996.5371            0    9164.5461    22.973979    21.088593    21.248396    10294.612    8990.3868     9298.513    9204.7385   -35.334519    46.850664    64.929145   -5612.6628 
15693000    2.9596364   -6996.7713   -6989.1578   -6996.7713            0    9164.4572    22.923156    21.106128    21.282972    10297.108    9152.9747    9258.8217    9081.5751    75.712706    41.466774    124.64484   -5612.9061 
15694000    3.0040106    -6996.926   -6989.1984    -6996.926            0    9134.9364    22.908235     21.11127    21.293119    10297.819    9369.3931    8913.2479    9122.1683    143.55642   -69.204236    66.015893    -5617.285 
15695000    2.9675903   -6996.2306   -6988.5966   -6996.2306            0    9161.4786    22.960976     21.09065    21.259915    10295.367    9314.4906    8913.0892    9256.8562    39.720133   -116.60622   -4.6442907   -5613.0247 
15696000    3.0216379   -6996.4038   -6988.6309   -6996.4038            0    9173.7365    23.012483    21.072552    21.223859    10292.122    9044.1251    9119.4735     9357.611    44.424081   -125.75551   -58.570891   -5611.6526 
15697000    3.0916177    -6996.526    -6988.573    -6996.526            0    9160.4123    23.016794    21.070297    21.222961    10292.514    8897.5047    9377.5312     9206.201   -90.826199   -45.942558   -143.95569   -5613.5424 
15698000    2.9983478    -6996.277   -6988.5639    -6996.277            0    9168.3628    22.966614     21.08899    21.255324    10294.861     9118.776    9345.0142    9041.2983     -10.6975   -3.8405994   -14.785208    -5612.026 
15699000    3.0371145   -6996.5807    -6988.768   -6996.5807            0      9154.64    22.913323    21.106109    21.290887    10296.509    9312.9483    9196.9727     8953.999   -22.138532    91.365903    40.215236   -5614.0704 
15700000    3.0595872   -6997.0758   -6989.2052   -6997.0758            0    9163.8398    22.911669    21.106485    21.293645    10297.283    9385.1065    9122.5789    8983.8339    -75.38374    82.532722    89.317037   -5613.0227 
15701000    3.0015506   -6996.4404   -6988.7191   -6996.4404            0    9163.7695    22.969303    21.086762    21.255994    10295.303    9202.8452    9193.8752     9094.588   -76.711183    41.824045    43.103154   -5612.8118 
15702000     3.057568   -6996.3263   -6988.4609   -6996.3263            0    9169.1478    23.013404    21.078774    21.217135    10292.312    9093.5658    9043.0398    9370.8379    -20.29906   -34.194511   -26.392495    -5612.146 
15703000      2.85599   -6996.3996   -6989.0527   -6996.3996            0     9172.771    23.007452    21.083508    21.217983    10292.373    9126.0405    9068.0317    9324.2407   -90.400652    59.122217   -49.685439   -5612.1858 
15704000    3.0598367    -6996.881   -6989.0097    -6996.881            0    9148.8609    22.954775    21.096309    21.261377    10296.057    9277.2027    9086.4488    9082.9314    21.542306    40.862502    -11.88952   -5615.2403 
15705000    2.9911287   -6997.0073   -6989.3128   -6997.0073            0    9154.3182    22.916259    21.104836    21.290361    10296.953    9206.2707    9273.9025    8982.7813    131.86645   -17.611353    26.882372   -5614.6044 
15706000    2.9062939   -6996.9287   -6989.4524   -6996.9287            0    9160.7913    22.933416    21.098013    21.279631    10296.139     9068.469    9320.8741    9093.0309    77.518379   -169.92478   -10.441962   -5613.8806 
15707000    2.8085735   -6996.2226   -6988.9977   -6996.2226            0    9172.1316    22.983776    21.083316    21.243649    10294.125    9090.4019    9141.6903    9284.3027    15.777837   -85.076472   -122.44287   -5611.9925 
15708000    2.9610921   -6995.9908   -6988.3735   -6995.9908            0    9189.4198    23.020258    21.073851    21.213904    10291.406    9108.9892    9066.6126    9392.6575   -65.068572   -8.8786121   -19.758694   -5609.1372 
15709000    2.9980198   -6995.9096   -6988.1974   -6995.9096            0    9207.7029    22.994686    21.081044    21.232263    10292.381    9152.7052    9185.0236      9285.38    11.128541    54.082503   -18.395769    -5606.086 
15710000    3.0807775   -6997.1781    -6989.253   -6997.1781            0    9159.2279     22.94169    21.098025    21.272666    10296.489    9231.3304    9192.6716    9053.6818    68.508272   -13.731264    40.723585   -5613.8692 
15711000    3.0417016   -6996.7631   -6988.9385   -6996.7631            0    9152.0175    22.905101    21.109486    21.296652    10297.248    9353.1909    9125.5492    8977.3124   -17.216825    10.388973    55.564006   -5614.5361 
15712000    2.8179144   -6996.5465   -6989.2976   -6996.5465            0    9165.7715    22.942472    21.095523     21.27289    10295.727    9166.6761    9217.9535    9112.6848   -54.292029   -32.547469   -34.361123    -5613.033 
15713000    3.0619082   -6996.7454   -6988.8689   -6996.7454            0    9179.5226    23.003801      21.0752    21.232418    10293.683    9022.4885    9313.2027    9202.8766   -50.593853    0.2970418   -58.210949   -5610.8132 
15714000    2.9140902    -6995.725   -6988.2287    -6995.725            0    9184.7167    23.018146    21.070834    21.218421    10291.179    9068.7959    9276.1825    9209.1717   -74.721065    60.488837   -8.6615486   -5609.7286 
15715000    2.9162767   -6996.6739    -6989.172   -6996.6739            0    9149.2997    22.975157    21.092808     21.24236    10294.272    9260.3862    8979.1761    9208.3368   -88.669834    90.610866    38.727848   -5615.5748 
15716000    3.0208865   -6996.7906   -6989.0196   -6996.7906            0    9157.1281    22.917085    21.109013    21.284781    10296.663    9460.5664    8924.4738     9086.344    66.252868      4.11014    78.704315   -5613.9279 
15717000    2.9983304   -6996.8127   -6989.0997   -6996.8127            0    9182.9953    22.911852    21.110065    21.287267    10296.027     9304.401    9123.0849       9121.5    126.26334   -69.609498    43.128756   -5610.2087 
15718000    3.0225894    -6996.356   -6988.5806    -6996.356            0    9177.6148    22.967481    21.088702    21.254615    10294.765    8894.0864    9422.7996    9215.9583    46.852519   -34.081497   -23.246441   -5610.6664 
15719000    2.9908768   -6996.4136   -6988.7198   -6996.4136            0    9156.3926    23.011622    21.074204    21.225601     10293.39    8952.2998    9233.6837    9283.1944   -22.440709    22.153046   -115.76679   -5614.1756 
15720000    2.7991848   -6996.2796   -6989.0789   -6996.2796            0    9145.0999    23.006771    21.077219    21.227094    10293.416    9112.7858    9056.4352    9266.0786   -17.674733   -2.1453952   -92.706016   -5616.2264 
15721000    3.0108508   -6996.6395   -6988.8942   -6996.6395            0    9157.0612    22.951177    21.095669    21.262677     10294.76    9291.1715    9015.2434    9164.7686    44.026759   -74.139185   -34.921237   -5614.0667 
15722000     2.929345   -6996.8631   -6989.3276   -6996.8631            0    9165.7133    22.910309     21.10544    21.295511    10297.064    9389.4735    9112.3016    8995.3649    107.25673   -80.641319    75.628018   -5612.8929 
15723000    3.0231268   -6997.0058    -6989.229   -6997.0058            0    9160.9197     22.93021    21.098603    21.283175    10296.702    9264.0141     9135.073    9083.6721   -37.870823    50.224265    103.31721   -5613.5626 
15724000     3.020553   -6996.2585   -6988.4883   -6996.2585            0    9195.2102    22.986946    21.080672    21.242946    10293.913    9014.8602    9275.7553     9295.015   -69.794824    106.14437    43.775205   -5608.0468 
15725000    2.9244418   -6996.3016   -6988.7786   -6996.3016            0    9165.6529    23.021957    21.072054    21.217137    10292.856    8880.7069    9325.3144    9290.9375   -135.18233    128.65524  -0.45883436   -5612.9156 
15726000    3.0186449   -6996.4203    -6988.655   -6996.4203            0    9160.0478    22.997711    21.079513    21.232515     10293.11    8974.8897    9344.3884    9160.8653   -86.772622    49.975128    41.923581   -5613.5994 
15727000    3.1806823   -6996.5422   -6988.3601   -6996.5422            0    9127.6642    22.933426    21.105753    21.271444    10295.958     9418.841    8977.5982    8986.5534   -68.153722   -75.773723   -14.893355   -5617.7867 
15728000    3.0069504   -6996.2791   -6988.5439   -6996.2791            0    9126.5519    22.909463    21.111081     21.29051    10297.017    9630.8347    8801.5718    8947.2492    20.083116   -52.471023    26.557344   -5617.9965 
15729000    3.1037853   -6996.7873    -6988.803   -6996.7873            0    9141.2388     22.93991    21.100191    21.271023    10295.951    9285.1605    9072.5943    9065.9618   -5.3999639    6.8843913    53.677272   -5616.1921 
15730000    3.0246446   -6996.0621   -6988.2814   -6996.0621            0    9143.8993    23.001563     21.07583    21.234773     10294.13    8780.6316    9389.4742     9261.592    48.591481    -71.19997   -78.040412   -5615.5139 
15731000    2.9808511   -6995.7366   -6988.0686   -6995.7366            0     9191.423    23.020957    21.073141    21.216991    10292.869    8755.5333    9351.3832    9467.3524    36.729832    5.9481065    -58.28551   -5608.3355 
15732000    3.0064167   -6996.3404   -6988.6066   -6996.3404            0    9197.0118    22.987932    21.081496    21.241245    10293.932    8949.4746    9161.1333    9480.4275    80.447806   -70.470025    54.434223   -5607.8919 
15733000    2.9145036   -6996.5165   -6989.0191   -6996.5165            0    9184.4157     22.92706    21.103075    21.279916    10295.893    9382.0764    8969.1257    9202.0449    87.046152   -2.5858442    45.774084   -5609.9329 
15734000    2.9755489   -6996.6924    -6989.038   -6996.6924            0    9144.2641    22.907278    21.108723    21.295044    10297.077    9622.9402    8912.9154    8896.9367    28.627829   -34.856569    74.937702   -5615.8227 
15735000    2.9881073   -6996.7889   -6989.1022   -6996.7889            0    9130.0226    22.952315    21.095887    21.263089    10295.576    9379.8561      9067.11    8943.1017   -108.07025    79.241781   -26.138266   -5618.2255 
15736000    2.9721728   -6996.3881   -6988.7423   -6996.3881            0    9152.5437    23.002981    21.081581    21.225572    10293.112    8973.1946    9314.3943    9170.0424   -120.51793    8.4209142   -125.01328   -5614.8129 
15737000    2.8270989   -6995.9965    -6988.724   -6995.9965            0    9173.1902    23.013872    21.077129    21.218259    10292.263    8831.3634    9460.8573    9227.3499   -139.58273    12.528029   -125.05622   -5611.8089 
15738000    3.0569164   -6996.0531   -6988.1894   -6996.0531            0    9194.9821    22.968379    21.088881    21.251862    10293.922    9011.0561    9446.0251    9127.8651   -9.3997343    24.833126   -2.9637189   -5607.7808 
15739000     3.076251   -6996.8414   -6988.9279   -6996.8414            0    9173.8452    22.916031    21.105908    21.287658    10296.066    9353.7076    9130.1801    9037.6479     5.443533    131.18719    84.321993   -5611.4057 
15740000    2.9546421   -6996.4236   -6988.8229   -6996.4236            0    9181.5872     22.91487    21.111267    21.283182    10295.993    9583.6334    8838.9071    9122.2212    47.017364    25.278706    131.19568   -5610.1479 
15741000    2.9936214   -6996.3991   -6988.6982   -6996.3991            0    9182.3318    22.970133    21.091539    21.246474    10293.395    9275.5334     8974.316    9297.1459    39.578383   -29.578405   -16.583892   -5610.2593 
15742000    3.0573642   -6996.6902   -6988.8253   -6996.6902            0    9141.9811    23.016414    21.075395    21.220236    10293.512    8881.1393      9191.18    9353.6239    2.7916588    -90.60062    -113.6519   -5616.4283 
15743000    3.0087028   -6996.2815   -6988.5418   -6996.2815            0    9131.5284    23.008036    21.073502    21.231029    10294.074    8821.2048    9388.0094    9185.3709    73.267219   -95.779956   -148.71756    -5617.639 
15744000    2.8673909   -6996.2132    -6988.837   -6996.2132            0    9146.2984    22.951366     21.09308    21.266807     10295.58    9062.1296    9314.7226    9062.0429    36.693189   -86.766131    -90.84031   -5615.5159 
15745000    3.0850027    -6996.326     -6988.39    -6996.326            0    9149.7551    22.906804    21.107586    21.296662    10297.092    9261.8932    9219.7008    8967.6711    103.55796   -11.333704    25.471198   -5614.3481 
15746000    3.1458364   -6997.1845    -6989.092   -6997.1845            0    9164.1691    22.923666    21.103407    21.283195    10296.117    9441.7843    9046.3612    9004.3617   -8.1812443   -24.084714    67.056145    -5613.016 
15747000    2.9845509   -6996.1932   -6988.5156   -6996.1932            0    9200.2518    22.982898    21.084555    21.241481    10293.286    9259.1127    9084.1437    9257.4991   -34.424382    45.712377    44.405814   -5607.4013 
15748000    3.0143267   -6995.8846   -6988.1304   -6995.8846            0    9196.8222    23.018916    21.075843    21.213399    10291.533    9037.7378    9089.1857    9463.5431   -79.140019    4.8372388    48.075096    -5607.766 
15749000     3.100004    -6996.707   -6988.7325    -6996.707            0    9184.3214    22.994745      21.0811    21.234663    10293.599    9111.5144    9245.8523    9195.5976   -127.28643    152.56047     29.95566   -5609.9676 
15750000     3.087079   -6996.5778   -6988.6365   -6996.5778            0    9138.4582    22.939184    21.097856    21.276791    10297.278     9244.064    9280.2675    8891.0431   -89.603048    114.24672    59.927186   -5616.2664 
Loop time of 602.549 on 64 procs for 250000 steps with 1296 atoms

Performance: 71.695 ns/day, 0.335 hours/ns, 414.904 timesteps/s
194.0% CPU use with 32 MPI tasks x 2 OpenMP threads

MPI task timing breakdown:
Section |  min time  |  avg time  |  max time  |%varavg| %total
---------------------------------------------------------------
Pair    | 37.568     | 48.414     | 58.097     | 103.9 |  8.03
Bond    | 0.86909    | 1.0948     | 1.7774     |  15.6 |  0.18
Kspace  | 305.45     | 319.47     | 334.07     |  44.4 | 53.02
Neigh   | 0.11527    | 0.12738    | 0.13838    |   1.6 |  0.02
Comm    | 83.539     | 90.016     | 94.205     |  29.6 | 14.94
Output  | 0.58713    | 0.58745    | 0.5892     |   0.0 |  0.10
Modify  | 115.39     | 118.59     | 121.53     |  10.8 | 19.68
Other   |            | 24.24      |            |       |  4.02

Nlocal:        40.5000 ave          49 max          31 min
Histogram: 5 5 2 3 0 1 0 4 6 6
Nghost:        3239.97 ave        3257 max        3218 min
Histogram: 1 2 1 1 7 8 4 2 3 3
Neighs:        13555.9 ave       16377 max       10383 min
Histogram: 5 5 2 3 0 1 0 4 6 6

Total # of neighbors = 433788
Ave neighs/atom = 334.71296
Ave special neighs/atom = 2.0000000
Neighbor list builds = 250
Dangerous builds = 0

unfix		3
unfix		2
unfix		1

write_data	data.final.${pid}
write_data	data.final.0
System init for write_data ...
PPPM initialization ...
  extracting TIP4P info from pair style
  using 12-bit tables for long-range coulomb (../kspace.cpp:340)
  G vector (1/distance) = 0.37231923
  grid = 30 36 32
  stencil order = 5
  estimated absolute RMS force accuracy = 0.0035533182
  estimated relative force accuracy = 1.0700712e-05
  using double precision FFTW3
  3d grid and FFT values/proc = 7344 1152
Last active /omp style is kspace_style pppm/tip4p/omp
WARNING: Not all mixed pair coeffs generated from mixing. Use write_data with 'pair ij' option to store all pair coeffs. (../write_data.cpp:312)

write_restart   restart.lmp.${pid}
write_restart   restart.lmp.0
System init for write_restart ...
PPPM initialization ...
  extracting TIP4P info from pair style
  using 12-bit tables for long-range coulomb (../kspace.cpp:340)
  G vector (1/distance) = 0.37231923
  grid = 30 36 32
  stencil order = 5
  estimated absolute RMS force accuracy = 0.0035533182
  estimated relative force accuracy = 1.0700712e-05
  using double precision FFTW3
  3d grid and FFT values/proc = 7344 1152
Last active /omp style is kspace_style pppm/tip4p/omp
Total wall time: 0:10:02
