LAMMPS (30 Jul 2021)
Processor partition = 1
  using 4 OpenMP thread(s) per MPI task
using multi-threaded neighbor list subroutines
variable        pid world 0 1
variable        phase world IceII IceIh

shell cd ${phase}
shell cd IceIh
include Restart.lmp
echo both
log log.lammps
#include		in.partitions
include		in.temp
variable        temperature equal 20.10
variable	tempDamp equal 100.0
include		in.pressure
variable        pressure equal 1998.0
variable        pressureDamp equal 1000.0 # This is 1 ps
include		in.seed
variable        seed equal 745823

units		real
atom_style	full
#include		in.box
read_restart	restart.lmp.${pid}
read_restart	restart.lmp.1
Reading restart file ...
  restart file = 30 Jul 2021, LAMMPS = 30 Jul 2021
  restoring atom style full from restart
  orthogonal box = (0.14860680 0.15921043 0.20080665) to (18.058966 23.469967 22.012389)
  2 by 4 by 2 MPI processor grid
  restoring pair style lj/cut/tip4p/long/omp from restart
  restoring bond style harmonic/omp from restart
  restoring angle style harmonic/omp from restart
  864 atoms
  576 bonds
  288 angles
Finding 1-2 1-3 1-4 neighbors ...
  special bond factors lj:    0        0        0       
  special bond factors coul:  0        0        0       
     2 = max # of 1-2 neighbors
     1 = max # of 1-3 neighbors
     1 = max # of 1-4 neighbors
     2 = max # of special neighbors
  special bonds CPU = 0.001 seconds
  read_restart CPU = 0.006 seconds
include 	in.setup
variable	out_freq equal 1000
variable	out_freq2 equal 10000
variable	out_freq3 equal 1000

timestep	2.0

neigh_modify    delay 7 every 1

include		in.tip4p
# This is TIP4P/Ice

# create groups ###
group ox type 2
288 atoms in group ox
group hy type 1
576 atoms in group hy

# set charges - beside manually ###
set group ox charge -1.1794
Setting atom values ...
  288 settings made for charge
set group hy charge 0.5897
Setting atom values ...
  576 settings made for charge

# ### TIP3P Potential Parameters ###
pair_style lj/cut/tip4p/long/omp 2 1 1 1 0.1577 8.5
pair_coeff 1 1*2 0.000 0.000
pair_coeff 2 2 0.21084 3.1668
bond_style  harmonic
bond_coeff  1 450 0.9572
angle_style harmonic
angle_coeff 1 55 104.52
kspace_style pppm/tip4p/omp 1.0e-5
pair_modify tail yes

thermo          ${out_freq}
thermo          1000
thermo_style    custom step temp pe etotal epair emol press lx ly lz vol pxx pyy pzz pxy pxz pyz enthalpy

restart 	${out_freq3} restart.lmp.${pid} restart2.lmp.${pid}
restart 	1000 restart.lmp.${pid} restart2.lmp.${pid}
restart 	1000 restart.lmp.1 restart2.lmp.${pid}
restart 	1000 restart.lmp.1 restart2.lmp.1


include         in.dump
dump            myDump all atom ${out_freq2} dump.water.${pid}
dump            myDump all atom 10000 dump.water.${pid}
dump            myDump all atom 10000 dump.water.1
dump            myDump2 all dcd ${out_freq2} dump.dcd
dump            myDump2 all dcd 10000 dump.dcd
dump_modify     myDump append yes
dump_modify     myDump2 append yes


variable natoms 	equal  "count(all)"                        # NUMBER ATOMS
variable H      	equal  "enthalpy/v_natoms"                 # ENTHALPY-per-atom
variable Vol      	equal  "vol/v_natoms"                 # volume-per-atom
fix AVG all 		ave/time ${out_freq} 1 ${out_freq} v_Vol v_H file vol_enthalpy.dat
fix AVG all 		ave/time 1000 1 ${out_freq} v_Vol v_H file vol_enthalpy.dat
fix AVG all 		ave/time 1000 1 1000 v_Vol v_H file vol_enthalpy.dat


timer           timeout 23:50:00 every 1000
New timer settings: style=normal  mode=nosync  timeout=23:50:00

fix 		1 all shake 1e-6 200 0 b 1 a 1
Finding SHAKE clusters ...
       0 = # of size 2 clusters
       0 = # of size 3 clusters
       0 = # of size 4 clusters
     288 = # of frozen angles
  find clusters CPU = 0.001 seconds
fix             2 all nph aniso ${pressure} ${pressure} ${pressureDamp}
fix             2 all nph aniso 1998 ${pressure} ${pressureDamp}
fix             2 all nph aniso 1998 1998 ${pressureDamp}
fix             2 all nph aniso 1998 1998 1000
fix             3 all temp/csvr ${temperature} ${temperature} ${tempDamp} ${seed}
fix             3 all temp/csvr 20.1 ${temperature} ${tempDamp} ${seed}
fix             3 all temp/csvr 20.1 20.1 ${tempDamp} ${seed}
fix             3 all temp/csvr 20.1 20.1 100 ${seed}
fix             3 all temp/csvr 20.1 20.1 100 745823


run             250000
PPPM initialization ...
  extracting TIP4P info from pair style
  using 12-bit tables for long-range coulomb (../kspace.cpp:340)
  G vector (1/distance) = 0.37224896
  grid = 24 27 25
  stencil order = 5
  estimated absolute RMS force accuracy = 0.0030950844
  estimated relative force accuracy = 9.3207548e-06
  using double precision FFTW3
  3d grid and FFT values/proc = 6300 1296
Last active /omp style is kspace_style pppm/tip4p/omp
Neighbor list info ...
  update every 1 steps, delay 7 steps, check yes
  max neighbors/atom: 2000, page size: 100000
  master list distance cutoff = 10.8154
  ghost atom cutoff = 10.8154
  binsize = 5.4077, bins = 4 5 5
  1 neighbor lists, perpetual/occasional/extra = 1 0 0
  (1) pair lj/cut/tip4p/long/omp, perpetual
      attributes: half, newton on, omp
      pair build: half/bin/newton/omp
      stencil: half/bin/3d
      bin: standard
Setting up Verlet run ...
  Unit style    : real
  Current step  : 44000000
  Time step     : 2
  Walltime left : 23:49:59.96
Per MPI rank memory allocation (min/avg/max) = 12.26 | 12.29 | 12.31 Mbytes
Step Temp PotEng TotEng E_pair E_mol Press Lx Ly Lz Volume Pxx Pyy Pzz Pxy Pxz Pyz Enthalpy 
44000000    23.229305   -4698.6523    -4658.838   -4698.6523            0    1945.4902    17.910359    23.310757    21.811583    9106.4234     1892.949    1603.9742    2339.5474    551.12793    -131.7515    289.77112   -4400.4617 
44001000    19.328964   -4704.6807   -4671.5515   -4704.6807            0    1977.7764    17.915736    23.264325    21.848325    9106.3278    1757.4781    2086.4917    2089.3593   -262.10767    309.53589    81.012644     -4408.89 
44002000    20.170724   -4704.7659    -4670.194   -4704.7659            0    1982.1391    17.892202    23.327827    21.801291    9099.5581    1823.7175    1795.6145    2327.0852   -225.17578   -213.35567    121.34827   -4407.1488 
44003000    19.789067   -4705.1256   -4671.2078   -4705.1256            0    2257.4483    17.866733    23.312442    21.821022    9088.8304    2122.2139    2158.4682    2491.6629    279.87345    92.484706    28.540313   -4371.9801 
44004000    19.241897   -4707.4023   -4674.4224   -4707.4023            0    1888.0234     17.84768    23.299628    21.901135    9107.4629    2311.4274    1504.3284    1848.3146    245.20857    -134.0211    157.61134   -4423.6494 
44005000     20.27997   -4704.6274   -4669.8682   -4704.6274            0    1858.3698    17.863194    23.340322    21.848596    9109.3939    2025.9274    1663.5027    1885.6794    192.14751    193.38518   -86.525657   -4422.9816 
44006000    20.137018   -4703.8333   -4669.3191   -4703.8333            0    1857.4879    17.832712    23.299379    21.920689    9107.8517    1740.7792    1874.8163    1956.8682   -350.71595   -170.39992   -193.63347   -4422.5914 
44007000    20.886332    -4706.048   -4670.2495    -4706.048            0    2008.0087    17.808875    23.347235    21.889652    9101.4545    2559.5471     1789.167     1675.312    39.987008    176.87104   -87.154113   -4403.7157 
44008000    21.541063   -4705.8165   -4668.8958   -4705.8165            0     2009.353     17.86362     23.25833    21.891492    9095.4323    1901.8829    1844.8349    2281.3411   -17.452033   -15.924955    224.47311   -4402.3601 
44009000    21.131234   -4705.3358   -4669.1176   -4705.3358            0    1890.2656    17.889456    23.285743    21.867908    9109.4985    1668.1659    1871.6429    2130.9879   -420.41119   -146.35296    67.900602   -4417.9907 
44010000    20.640366   -4705.2841   -4669.9072   -4705.2841            0    2148.9547    17.922462    23.240053    21.819142    9088.0867    1840.9875    2158.5564    2447.3202   -117.83631    84.905308    218.96215   -4385.0838 
44011000    20.180535   -4705.5321   -4670.9434   -4705.5321            0    1962.9319    17.893845     23.26548      21.8673    9103.5515    2037.7715    1939.8694    1911.1547   -64.219709     7.636265    70.802268   -4410.3328 
44012000    22.009581   -4704.5992   -4666.8756   -4704.5992            0    2018.8223    17.858001    23.211822     21.97344    9108.3587    2212.5374    2403.2421    1440.6873  -0.79894132   -129.26355   -15.520694   -4398.7032 
44013000    20.724975   -4703.5695   -4668.0476   -4703.5695            0    2259.4897    17.931303    23.212284    21.835771    9088.6263    2194.6732     2386.509     2197.287   -98.274213   -89.792412    39.772407   -4368.5561 
44014000    19.080546   -4704.8976   -4672.1942   -4704.8976            0    1880.9107    17.867808    23.323108    21.874285    9115.7322    1998.5457    1862.8667    1781.3196   -163.72568   -48.593991   -73.484727   -4422.1392 
44015000    19.385563   -4704.2171   -4670.9909   -4704.2171            0    2087.9421    17.881264    23.297972    21.838221    9097.7415    2049.5438    2145.6965    2068.5859    231.51509    36.496084    -52.65764   -4393.9602 
44016000    21.187251   -4707.0217   -4670.7074   -4707.0217            0    1908.5202    17.929243    23.245187    21.879667    9118.7582    1678.9311    2206.7829    1839.8465   -196.97305   -11.080586   -54.199641   -4416.8977 
44017000    20.364769   -4705.5791   -4670.6746   -4705.5791            0    2062.4119    17.966031    23.178681     21.86084    9103.4857    1858.8346    1963.0024    2365.3988   -183.72962   -55.271545   -152.91357   -4396.8585 
44018000    19.901058   -4706.9378   -4672.8281   -4706.9378            0    1959.1205    17.880413    23.260212    21.889719     9103.982    2281.9775    1857.4131    1737.9711   -178.88818    75.218993    136.25463   -4412.7113 
44019000    20.320568   -4705.3592   -4670.5304   -4705.3592            0    2068.5418    17.832255    23.250172    21.942993     9097.631    2135.1788    2360.2881    1710.1587    14.844742   -195.73562    14.401447   -4396.0771 
44020000    19.517433   -4704.9206   -4671.4684   -4704.9206            0    1782.2261     17.85237    23.370395     21.82582    9106.1019    1961.6304    1477.7596    1907.2883    61.226562    172.66299    55.354582   -4434.7831 
44021000    18.742836   -4704.4546   -4672.3301   -4704.4546            0    2159.5376    17.833384    23.399507    21.800249    9097.0781    2237.2555    1746.5429    2494.8145      239.158   -171.23603   -180.16528   -4385.8208 
44022000    19.366511   -4702.2161   -4669.0226   -4702.2161            0     2097.237    17.854235    23.240826     21.94461    9105.8537    2438.9694    2039.8453    1812.8963    306.28392    21.355383     124.2254   -4390.5105 
44023000    20.221702   -4706.4176   -4671.7583   -4706.4176            0    1932.4198     17.85102    23.268661    21.914192    9102.4834    2044.4075    1941.4731    1811.3787   -262.61201   -212.98129   -77.212486   -4415.2289 
44024000    21.358327   -4703.8253   -4667.2179   -4703.8253            0    1907.9911    17.922409     23.27914    21.831818    9108.6332    1996.6388     1958.024    1769.3107    153.69997    202.80055    303.16355   -4413.7602 
44025000    19.640964   -4703.1442   -4669.4802   -4703.1442            0    2116.9509    17.861012    23.277405    21.873915    9094.2556    2154.7632    2029.5064     2166.583   -139.18403   -32.819213   -93.361566   -4388.7082 
44026000    20.519543    -4703.662   -4668.4922    -4703.662            0     1886.187    17.916412    23.279351    21.849629    9113.0969    1617.3043     1787.576    2253.6805   -112.29914   -93.794515    90.700774   -4417.8082 
44027000    20.895322   -4705.2189    -4669.405   -4705.2189            0    2069.7443    17.850448    23.349062    21.825515    9096.6829    1985.0486    1730.1643      2494.02   -11.611434    -270.9047    155.46866   -4394.8207 
44028000      19.4204   -4705.4275   -4672.1416   -4705.4275            0    1834.4916    17.886636    23.277018     21.89251    9114.8925    1333.5847    2181.2834    1988.6067    64.159346   -99.487346    99.819918   -4428.2802 
44029000    18.734018   -4704.3789   -4672.2695   -4704.3789            0    2222.0745    17.869537    23.284695    21.852352    9092.4731    2365.8431    2244.6704    2055.7101   -238.53467    99.785479    112.01075   -4377.6126 
44030000    20.403547   -4703.8231   -4668.8521   -4703.8231            0    1970.0897    17.934033    23.154053    21.915598     9100.355    1923.1146    2382.1176     1605.037   -110.32084    81.678089    -7.488342   -4407.3831 
44031000    20.650053   -4704.1899   -4668.7964   -4704.1899            0    1829.0325    17.929859     23.26466    21.853858    9115.9454    1642.2875    1888.8651    1955.9451    21.133236   -127.82676    82.496319   -4425.6326 
44032000    20.250729   -4703.6995   -4668.9905   -4703.6995            0    2260.3371    17.841675    23.336665    21.831095    9089.7082    2522.7968    1864.2632    2393.9512   -160.34827   0.41761609    157.07879    -4369.351 
44033000    20.694928   -4705.1703   -4669.6999   -4705.1703            0    1858.1524    17.834188    23.349122    21.873617    9108.4503    2151.8804    1438.2083    1984.3684   -28.241007   -27.728597   -89.377554   -4422.8677 
44034000     20.18955   -4706.5236   -4671.9194   -4706.5236            0    1940.4455    17.812264    23.292511    21.954973    9108.9503    1791.8051    2181.3352    1848.1964    7.8179294     191.9188  -0.62688544   -4414.1415 
44035000    19.549254   -4707.2573   -4673.7506   -4707.2573            0    1792.7466    17.893566    23.191941    21.948087    9108.1609    1639.4173    2042.0054    1696.8173    92.741893   -105.90324   -70.509318   -4435.6143 
44036000    19.475373   -4704.8624   -4671.4823   -4704.8624            0    2195.5818    17.876394    23.247327    21.886932    9095.7356    2090.0827    2290.4609    2206.2017    78.387202    34.724048     125.5537    -4380.234 
44037000    20.273445   -4704.4439    -4669.696   -4704.4439            0    1788.0971    17.898383    23.242226    21.891965    9107.0193    1471.8905    2030.1836    1862.2173    200.56265   -64.634208   -31.556689   -4432.2071 
44038000    19.911184   -4705.4596   -4671.3325   -4705.4596            0    1847.7734     17.84957    23.352575    21.850153    9107.8738    1663.1171      1785.14     2095.063    71.167521    79.332748   -17.796577   -4425.8946 
44039000    20.906768   -4705.6004   -4669.7669   -4705.6004            0    1882.8244    17.918359    23.266572     21.84374    9106.6284    1952.4022    1198.2566    2497.8146   -261.97413   -64.121891   -166.17473   -4419.7075 
44040000    19.691972   -4705.2011   -4671.4498   -4705.2011            0    2083.2087    17.817629    23.324135      21.8923    9098.0191    2130.4942     1897.004    2222.1279   -45.575228   -135.24629    33.079342   -4395.0386 
44041000    19.399468   -4703.8332   -4670.5831   -4703.8332            0    1903.4631    17.825761    23.252937    21.977961    9109.8933    1682.8709    2194.6413    1832.8771    60.251673    71.290398    122.91378    -4417.692 
44042000    20.639243   -4706.3991   -4671.0242   -4706.3991            0    2302.5994    17.923182    23.309024    21.750344     9086.682    2452.2345    2040.9316    2414.6322   -282.61018    -76.92292   -208.53144   -4365.8839 
44043000    20.358906   -4704.8163   -4669.9218   -4704.8163            0    2026.5617    17.856137    23.340585    21.844029    9103.9942    2123.7309    1803.6506    2152.3037   -205.15577    121.96626   -6.7303135   -4400.8503 
44044000    20.656791   -4705.7838   -4670.3788   -4705.7838            0    1822.9387    17.924312      23.2643    21.853736    9112.9331    1633.4257    1951.1929    1884.1974    318.86036    -84.32808    48.711341   -4428.1052 
44045000    18.808298   -4706.9755   -4674.7387   -4706.9755            0    2069.5084    17.913295    23.227751    21.876266    9102.3983    2026.2428    2022.2985     2159.984   -200.29051   -23.013706    -39.42602   -4400.0132 
44046000    20.971744   -4704.9661   -4669.0212   -4704.9661            0     2069.017    17.964642    23.122385     21.91985    9105.1849    1748.9063    2474.2868     1983.858   -55.987903   -203.56998    58.067151   -4394.2769 
44047000      19.5292   -4704.4919   -4671.0195   -4704.4919            0    1979.9234    17.882229    23.212016    21.921735    9099.3304    1979.4031    2122.7874    1837.5796    -255.6526    69.233616   -224.22319   -4408.2749 
44048000    20.946133   -4706.5794   -4670.6785   -4706.5794            0    2228.8776    17.921711    23.268915    21.809976    9095.1693    2095.1003     2353.027    2238.5055   -184.85234   -133.01178   -23.831347   -4375.0319 
44049000    20.252269   -4703.7078   -4668.9961   -4703.7078            0    1840.2891    17.842182    23.311688    21.909102    9112.6833    1842.1382    1766.0497    1912.6794   -217.75229    139.00572   -7.4153142   -4424.4233 
44050000    20.776208   -4707.0941   -4671.4844   -4707.0941            0    1992.6813    17.784309     23.38698     21.88572    9102.7365     2177.895    1862.5207    1937.6283   -106.23499   -54.196498    297.92354   -4406.9479 
44051000    20.290194   -4703.5158   -4668.7391   -4703.5158            0    1967.4493    17.934228    23.258588    21.824079    9103.3651    1553.0527     2151.756    2197.5393   -128.24243   -172.29919   -217.46232   -4407.5341 
44052000     19.27892    -4703.437   -4670.3936    -4703.437            0    2111.9042    17.948627    23.135255    21.883097    9086.8695    1932.7618    2359.3401    2043.6105   -260.66771    11.824242    230.63277   -4390.5184 
44053000    19.481221   -4704.9694   -4671.5793   -4704.9694            0    2045.8907    17.943128    23.192985    21.872337    9102.2754    1871.9132    1878.5465    2387.2123   -230.27581   -113.56007     19.52339   -4399.9927 
44054000    20.814124   -4704.5172   -4668.8425   -4704.5172            0    1870.4656    17.863473    23.300103    21.870408    9102.9176    2028.3312     1655.988    1927.0777    117.24935     20.30313    14.303732   -4420.5257 
44055000     20.41543   -4705.5759   -4670.5845   -4705.5759            0    2213.3251    17.887223     23.27665    21.851832    9098.1112    2369.3743    2370.4479     1900.153   -276.29895    27.791112    221.30457   -4376.9059 
44056000     20.84268   -4703.6502   -4667.9265   -4703.6502            0    1678.2691    17.813832    23.396038    21.873551    9116.3073    1843.1057    1339.5646     1852.137   -28.344667   -93.093566   -33.331336   -4444.7973 
44057000    21.542723   -4706.8451   -4669.9216   -4706.8451            0    2328.2862    17.901949    23.253678    21.827157    9086.3433    2382.7024    2306.4175    2295.7388    19.717449      141.038   -76.630373   -4361.3888 
44058000    19.544118   -4703.8823   -4670.3843   -4703.8823            0    2084.3038     17.89237    23.175385    21.956084    9104.3659    2179.8021    2257.1829    1815.9265   -25.060986   -6.6465991    43.012039    -4393.635 
44059000    21.159651   -4706.6309    -4670.364   -4706.6309            0     1742.429    17.908776    23.219708    21.906996    9109.7294    1856.3228    1771.9688    1598.9953   0.44004202   -22.890463    41.719035   -4438.8717 
44060000    19.204652    -4706.072   -4673.1559    -4706.072            0    2095.4077    17.851798    23.279195    21.897082    9099.8902    2172.9721    1994.7814    2118.4696    121.79126    -27.71859   -3.0167358    -4395.069 
44061000    20.632961    -4706.782   -4671.4178    -4706.782            0    1836.4752    17.906077    23.299279    21.834977    9109.5238    1772.4698    1763.0922    1973.8636    1.1355485   -106.03971   -295.06884   -4427.4364 
44062000    19.896975    -4703.168   -4669.0653    -4703.168            0    2052.8397    17.869174    23.275467    21.884712    9102.1441    2014.0134    1903.8671    2240.6386   -163.97327   -78.908768     142.5729   -4396.5602 
44063000    20.912883   -4703.9418   -4668.0978   -4703.9418            0    2038.7141    17.943228    23.248389    21.824679    9104.1898    1720.4258    2009.0461    2386.6705    144.20455   -243.75497   -59.634524    -4397.407 
44064000    19.701703   -4703.9086   -4670.1406   -4703.9086            0    2248.5224    17.870086    23.245697    21.882159     9089.906    2084.7897    2251.0552    2409.7223   -83.614856    90.987674     140.8754   -4372.0608 
44065000    19.117181   -4705.4179   -4672.6517   -4705.4179            0    1851.9825    17.830208    23.344693    21.875948    9105.6604     2296.032    1803.1786     1456.737    -150.2767   -189.99011    149.72734   -4426.7145 
44066000    21.311286   -4704.4095   -4667.8827   -4704.4095            0    2033.5677    17.861447    23.204931    21.953369    9099.0928    2089.0106    2282.7477     1728.945    353.89614    125.63958    19.622143   -4398.0264 
44067000    19.789492   -4707.8037   -4673.8852   -4707.8037            0    2041.2908    17.837828    23.294756    21.901482    9100.6759     2185.486    2033.6445    1904.7419    91.798058   -221.59907   -95.380415   -4402.9569 
44068000    20.258272   -4705.4955   -4670.7735   -4705.4955            0    1755.9692    17.918323    23.224264    21.888078     9108.502    1925.8009    1727.1973    1614.9096   -2.7541558     243.8845   -9.2164395   -4437.5138 
44069000    19.140938   -4706.7976   -4673.9907   -4706.7976            0    2344.7305    17.866596    23.313744     21.80942     9084.436    2716.9009    1997.9421    2319.3484   -246.70354    168.83982   -57.506157    -4363.344 
44070000    20.673287   -4706.5108   -4671.0775   -4706.5108            0    1801.9998    17.927912    23.211004     21.89725      9111.99    1576.6316     1858.599    1970.7686    199.03916    -265.9087    12.892053   -4431.6115 
44071000    19.574396   -4704.7747   -4671.2249   -4704.7747            0    1984.1744    17.916731     23.30584    21.793245    9100.0846    1463.9227    2207.1203    2281.4802     -259.312   -50.708447   -74.008024   -4407.8944 
44072000    22.225504   -4704.5197   -4666.4259   -4704.5197            0    2024.5789    17.926514    23.239045    21.857222    9105.6106    2461.3318    1778.5582    1833.8467    -288.2433   -30.958093     363.7466     -4397.57 
44073000    18.603516   -4705.1136   -4673.2278   -4705.1136            0    1972.0535    17.845022    23.369611    21.821736     9100.345    2235.6185    1692.0468    1988.4952    -144.3091    62.726191   -166.42819   -4411.4985 
44074000    21.057376   -4706.7016     -4670.61   -4706.7016            0    2150.9711    17.916337    23.199283     21.86773    9089.2382    1926.8112    2251.3114    2274.7907    -151.5859   -200.36308    245.45124   -4385.4832 
44075000    19.890353   -4704.9173    -4670.826   -4704.9173            0    1813.8156    17.937237    23.226278    21.866674    9109.9896    1612.6958    2247.7981    1580.9529   -141.15744    9.9220366   -14.777979   -4429.8427 
44076000      19.2938   -4705.2579   -4672.1889   -4705.2579            0     2065.666    17.920991    23.286328    21.812896    9102.8287    2043.8291    1796.0297    2357.1391    34.809237    -236.9274    110.66507   -4397.9606 
44077000    19.048731    -4705.787   -4673.1382    -4705.787            0    1785.4869    17.923456     23.30391    21.816961    9112.6522    1679.5834    1640.5152     2036.362   -135.89916    31.524393   -29.435645   -4435.8493 
44078000    20.786991   -4702.6991   -4667.0709   -4702.6991            0    2237.4108    17.860178    23.278525    21.869727     9092.527    2585.7766    1933.1677    2193.2882   -133.57337   -131.32916    79.966651   -4370.3786 
44079000     20.24114   -4705.7576    -4671.065   -4705.7576            0    1892.2031     17.91111    23.292702    21.821378    9103.8381    1697.0554    1769.0469    2210.5069    91.692788     168.1069    146.77346   -4419.8369 
44080000     20.76635   -4703.0295   -4667.4367   -4703.0295            0    1814.5683    17.899593     23.28571    21.840069    9103.0442    1804.7184    1654.0228    1984.9635    229.20769   -31.779253   -93.854599   -4426.5373 
44081000    20.236547   -4705.9851   -4671.3003   -4705.9851            0    2002.8754    17.915307    23.252131    21.853625    9103.5438    2000.1402    1994.2599    2014.2262     64.96056    139.02099    99.937852   -4405.3869 
44082000    19.992146   -4706.7995   -4672.5337   -4706.7995            0     2001.475    17.887831    23.239466    21.894812     9101.753     1999.702     1819.705    2185.0181    201.33676    35.707781   -277.43366   -4406.8584 
44083000    19.469177   -4706.3195     -4672.95   -4706.3195            0     1854.483    17.885922     23.28682    21.862699    9105.9507    1714.7868    1754.4859    2094.1763   -14.061142    166.63297    298.55686   -4426.6729 
44084000    21.051983   -4703.5654    -4667.483   -4703.5654            0    2006.6194    17.974144    23.189536    21.836622    9101.7676    1460.9735    2092.2164    2466.6683    -112.0933   -67.488243   -77.515077   -4401.1244 
44085000    20.287516   -4705.6131    -4670.841   -4705.6131            0    2022.8316    17.912495    23.230793     21.87194    9101.3833    1928.8466    2137.6736    2001.9748   -1.4346273    33.322924    187.44812   -4402.3418 
44086000     19.97827   -4704.5842   -4670.3421   -4704.5842            0    1949.9227    17.982028    23.128014    21.899177     9107.618    1704.5247     2102.805    2042.4385   -186.58252   -88.141012   -77.582901   -4411.3431 
44087000    19.217733   -4704.8979   -4671.9594   -4704.8979            0    2054.1149    17.888702    23.154375    21.975402    9102.2494    2101.8224    2255.7399    1804.7825    55.711505    37.438445    193.28526   -4399.2819 
44088000     21.53139     -4704.57    -4667.666     -4704.57            0     2043.176    17.900807    23.222456    21.894841    9101.7005    2040.5431    2444.3538    1644.6311    11.738731   -17.321217   0.28084952   -4396.4569 
44089000     19.42463   -4707.2687   -4673.9756   -4707.2687            0    1833.6189    17.900498    23.279021    21.868344    9112.6719    1785.0703    1978.8546    1736.9318   -74.166381   -66.539427   -38.512664   -4430.2895 
44090000    20.708276   -4706.1823   -4670.6891   -4706.1823            0    2001.1687    17.893892    23.324862    21.820578    9107.3103    1962.8192    2005.1333    2035.5536    76.649625    70.625028    135.30114   -4404.8923 
44091000     20.25215   -4707.7623   -4673.0508   -4707.7623            0    1708.0742    17.887522    23.269369    21.898681    9114.9175    1954.3707    1476.6238    1693.2283   -81.827365    116.63623   -38.481771   -4445.9936 
44092000    19.928949   -4703.0388   -4668.8813   -4703.0388            0    2489.9606    17.872138    23.230764    21.867336    9078.9552    2665.0334    2422.1876    2382.6607    142.19479   -198.93762     385.8712   -4339.1925 
44093000    19.192445   -4705.3962    -4672.501   -4705.3962            0     1950.264    17.931471    23.189064    21.898145    9105.5562    1602.5025    2324.2273    1924.0623   -121.39578   -221.83395    -146.3713   -4413.5153 
44094000    20.359062   -4705.8743   -4670.9795   -4705.8743            0    2088.0391    17.838459    23.273818    21.914067    9098.0422    2200.5814    2143.1424    1920.3936   -273.74346   -93.651647    241.49203   -4393.9268 
44095000    19.461731   -4705.3518   -4671.9951   -4705.3518            0     1859.398    17.793091    23.319107    21.938598    9102.7409    2535.4323    1595.2694    1447.4925   -362.71789   -130.59358   -207.11915   -4425.1523 
44096000    20.662675   -4705.0615   -4669.6464   -4705.0615            0    2121.3917     17.93522    23.182971    21.888822      9101.19    1932.3133    2500.4433    1931.4185   -146.90299    199.83281    171.24165   -4388.0709 
44097000     20.03906   -4704.9233    -4670.577   -4704.9233            0    2089.2864    17.909387    23.266329    21.842619    9101.5068    2002.7404    1904.5671    2360.5518   -254.98323   -203.57389    92.690462   -4393.2532 
44098000    19.113691   -4705.5888   -4672.8286   -4705.5888            0    1889.8015    17.862926    23.259407     21.92474    9109.3143    2148.5428    1939.3092    1581.5526     88.37988    192.91256   -35.759178   -4421.7684 
44099000    21.128605   -4706.9509   -4670.7372   -4706.9509            0    1773.9113    17.888654    23.308493    21.848966    9110.0914    1692.4116    1309.3748    2319.9475    78.608418   -27.979855    196.83811   -4435.0529 
44100000    19.884991   -4706.5166   -4672.4345   -4706.5166            0    2001.2327    17.869786    23.264347    21.901117    9104.9274      2046.04    1661.4975    2296.1606   -12.752011     130.5636    100.91811   -4406.6987 
44101000    19.369459   -4706.8709   -4673.6723   -4706.8709            0     1947.804    17.944162    23.285232    21.797044    9107.5459    1679.0628     1828.032    2336.3171   -24.179554   -62.834958    138.59423   -4414.9567 
44102000    20.636327   -4704.7541   -4669.3842   -4704.7541            0    2071.4998     17.94977    23.313476     21.74115    9098.0519    1691.6447    1832.4908    2690.3638   -357.65632    21.915844   -102.31959   -4394.5256 
44103000     20.77608   -4705.2117   -4669.6022   -4705.2117            0     1952.294    17.864958    23.296717    21.867402    9101.1008    1705.4045    2025.7202    2125.7573   -70.308959    88.622413    212.28859   -4410.4738 
44104000    19.575793   -4704.9974   -4671.4452   -4704.9974            0    2075.2233    17.948046    23.216718    21.828408    9095.7822    1792.0695    2124.2272    2309.3731   -266.34388     146.1878   -80.885393   -4396.1613 
44105000    20.203312   -4703.4699   -4668.8421   -4703.4699            0    2072.4603    17.902684     23.25624    21.859187    9101.0533    1997.9866    2217.9216    2001.4727   -87.166631   -194.81771    402.18753   -4393.7654 
44106000    19.234888   -4705.7398   -4672.7719   -4705.7398            0    2187.8127    17.951048    23.191714    21.844862    9094.3561    2025.0908    2608.4907    1929.8567    -152.2827     44.49472   -15.808587   -4382.5982 
44107000    19.422082   -4705.5193   -4672.2305   -4705.5193            0    1802.9105    17.919003    23.254209    21.873296    9114.4328    1654.1639    2120.5278    1634.0399    143.89027   -183.65595    218.43171   -4432.5792 
44108000    19.821222   -4704.6371   -4670.6642   -4704.6371            0    1985.3235    17.964165     23.29408    21.750235     9101.575    1951.0013    1621.8223    2383.1469   -476.19557    225.92048   -45.560944    -4407.138 
44109000     19.67108   -4705.6198   -4671.9042   -4705.6198            0    2078.0753    17.905146    23.250023    21.853596    9097.5436    2136.3073    2200.9748    1896.9437    139.56242    102.33463    164.15589   -4396.1886 
44110000    19.473101   -4704.8712    -4671.495   -4704.8712            0    2035.4238    17.922023    23.279848    21.817747    9102.8433    1853.9239     2125.989    2126.3584   -230.96419   -29.884412    124.49708   -4401.2811 
44111000    20.540964   -4705.7054   -4670.4989   -4705.7054            0    1793.2843     17.95781    23.230422    21.849088    9114.7291    1596.7692    1829.8371    1953.2466    376.16047   -305.07678    119.28997   -4432.1195 
44112000    20.099291    -4705.038   -4670.5885    -4705.038            0     2002.706     17.86326    23.283021    21.896457    9106.9698    2034.3268    2094.6372    1879.1541   -181.23573   -69.502206    -45.50923   -4404.5975 
44113000    20.120207   -4705.0358   -4670.5505   -4705.0358            0    1985.4008    17.927699    23.208678    21.869878    9099.5794    2214.9378    2138.8761    1602.3886    -306.5441   -2.8023792    147.37202   -4407.0718 
44114000    20.795626    -4703.552    -4667.909    -4703.552            0     1929.481    17.940854    23.276704    21.815707    9110.3253    1871.9952    2019.1332    1897.3147    48.827934   -169.41167   -192.94944   -4411.5489 
44115000    20.481902   -4704.2423    -4669.137   -4704.2423            0    1939.5905    17.875472     23.25258    21.922583    9112.1402    2075.4843    1927.0469    1816.2402     -4.41205    73.581681     104.8686   -4411.3825 
44116000    19.494028   -4705.4919   -4672.0798   -4705.4919            0     2161.394    17.890154    23.285076    21.840697    9098.2578    2207.0747    1939.4461    2337.6611    333.29894    16.756765   -31.684469   -4385.2871 
44117000    19.194284   -4706.1589   -4673.2606   -4706.1589            0    2064.9011    17.934949    23.200533    21.872256    9101.0542    1742.2903    2233.8583    2218.5545    -115.6123   -259.43542    49.464671   -4399.1872 
44118000    19.490214   -4706.0214   -4672.6159   -4706.0214            0    1964.2762    17.861097    23.211442    21.950387    9100.2311    2067.1762    2418.2516    1407.4008     199.6409    84.252335    212.33147    -4411.922 
44119000     19.98547   -4703.7127   -4669.4583   -4703.7127            0    1881.1018    17.840941    23.217972    21.983932    9106.4149    1872.0481    2079.1869    1692.0702   -100.21226   -102.74004   -63.988551   -4419.6335 
44120000     19.83971   -4705.9626    -4671.958   -4705.9626            0    2155.0689    17.859709    23.290986    21.864356    9094.9214    2370.5944    2246.7863    1847.8259    -164.3436   -93.972112    186.80815   -4386.1095 
44121000    20.186064   -4706.9901   -4672.3919   -4706.9901            0    1770.7551    17.877226    23.332376    21.852033    9114.8799    1840.2173    1680.8256    1791.2223    13.913255   -231.24814   -69.629048   -4437.0033 
44122000    20.013512   -4703.1393   -4668.8368   -4703.1393            0    1882.8389    17.937566    23.204631    21.904699    9117.4937    1565.5796    2358.8634    1724.0735    13.001234     26.46422    385.90012   -4418.4771 
44123000    19.292113    -4706.508   -4673.4419    -4706.508            0    2071.3295    17.864902    23.282586    21.883097    9102.0799    2156.1393    1912.3494    2145.4998     82.13574   -39.926996   -260.96934   -4398.4843 
44124000    19.931784    -4702.664   -4668.5016    -4702.664            0    2099.4245    17.951826     23.15879    21.883046     9097.714    2026.8961    2215.2929    2056.0845   -29.875392   -20.019617    186.76684   -4389.9482 
44125000    20.276909   -4702.3754   -4667.6215   -4702.3754            0    1984.5168    17.863602    23.237163    21.938979     9106.858    1914.0298    2332.1819    1707.3388   -136.90023   -19.207181    88.038045   -4404.0495 
44126000    19.855606   -4705.6881   -4671.6563   -4705.6881            0    1974.4119    17.965206    23.217197    21.819521    9100.9599    1884.3122    2016.2004    2022.7232    128.16215   -47.996887   -35.976689   -4409.5962 
44127000    21.097438   -4706.0981   -4669.9378   -4706.0981            0    1901.8804    17.871662    23.254474    21.925256    9112.0508    2141.7899     1739.166    1824.6851   -244.29442    32.484746    162.30476   -4417.1971 
44128000    20.515283   -4705.8137   -4670.6513   -4705.8137            0    2013.0718    17.900759    23.277476    21.854902    9106.5989    2073.0237    1693.1904    2273.0014    228.95105   -164.89486   -190.46885   -4403.2944 
44129000      20.9666   -4704.9596   -4669.0236   -4704.9596            0    2038.0586    17.881328    23.310149    21.835308    9101.3148    2136.1894      2205.04    1772.9465   -341.78467    259.54093    274.76142   -4398.5053 
44130000    19.743798   -4706.9392    -4673.099   -4706.9392            0    1914.1428    17.866221    23.256502    21.911101    9104.1897    2316.8035     1880.924    1544.7009   -71.388099   -320.14774   -190.89996   -4418.9482 
44131000    19.259206   -4705.8395   -4672.8299   -4705.8395            0    2136.6546     17.91475    23.318275    21.782024    9099.2455    2338.6645    1992.5008    2078.7985   -270.89716    343.25413    175.34078   -4389.2891 
44132000    20.163973   -4702.7841   -4668.2237   -4702.7841            0     2060.803    17.842264     23.30176    21.891838     9101.666    2490.5505    2088.2459    1603.6127    156.87051   -184.33994   -35.705919   -4394.6759 
44133000    20.422411   -4707.4513    -4672.448   -4707.4513            0    2101.5827    17.853701    23.343464    21.834394    9099.8598    1917.2576    2159.8751    2227.6156   -18.505449    74.473018    133.21822   -4393.5425 
44134000    19.671815   -4706.4574   -4672.7406   -4706.4574            0    1928.0032    17.907449    23.269706    21.863674    9110.6164     1849.142    2021.6212    1913.2463    18.198463   -341.39581    118.36129   -4416.5688 
44135000    19.292058   -4706.6452   -4673.5793   -4706.6452            0    2258.5902    17.873916    23.250059    21.878375    9091.9874    2289.8848    2274.4473    2211.4384   -211.43065   -146.14366    59.346093   -4374.0963 
44136000     18.80065   -4702.7221   -4670.4984   -4702.7221            0    2042.9619    17.958087    23.133919    21.911406     9102.895    2011.5515    2112.8733    2004.4608    3.6398911    111.61661    235.78605   -4399.2822 
44137000    19.528558   -4706.0311   -4672.5598   -4706.0311            0    2122.0639    17.907749    23.263975    21.847886    9101.9479    2041.7026    1822.7266    2501.7625    160.56027   -16.401079   -94.089587   -4390.8716 
44138000    21.255366   -4707.1098   -4670.6788   -4707.1098            0    1952.6041    17.885381    23.311776    21.854448    9111.9935    2039.7449    1571.7344    2246.3329    -191.3363   -66.589694    247.59693    -4411.199 
44139000    19.653155   -4708.3298    -4674.645   -4708.3298            0     1988.114    17.918426    23.271594    21.846644    9109.8393    1665.7584    2445.7645     1852.819     -105.418   -12.393748    100.83224   -4410.5088 
44140000    20.052339   -4705.2954   -4670.9264   -4705.2954            0    2209.6375    17.884831    23.238991    21.867038    9088.4975    2072.8961    2570.4223     1985.594    312.81961    40.820952    254.60185   -4378.0469 
44141000    20.055063   -4707.2928   -4672.9191   -4707.2928            0    2124.5443    17.914068    23.275577    21.830541    9102.4686    1814.7799    2171.6421    2387.2111   -147.98622     65.22025   -136.07078   -4390.8854 
44142000    19.504828   -4706.1248   -4672.6942   -4706.1248            0    1886.7538    17.846291    23.376052    21.829857    9106.8883    2219.5053    1488.7354    1952.0207   -106.57647   -120.77203    269.41481   -4422.1057 
44143000    19.493218    -4705.617   -4672.2063    -4705.617            0    1885.5418    17.835306     23.36647    21.854246    9107.7166    2295.6138    1755.1663    1605.8454   -521.46168     51.75041   -54.670511    -4421.756 
44144000     18.86981   -4703.5286   -4671.1864   -4703.5286            0     2267.917    17.908327    23.263909    21.809661    9086.2908    2197.5149    1898.0093    2708.2268     19.49655   -95.288637    152.02165   -4370.6551 
44145000    20.164859   -4704.1774   -4669.6155   -4704.1774            0    1886.5871    17.908151    23.300556    21.841957    9113.9906    1775.1306    1570.2717     2314.359   -309.42906    166.41474    172.12518   -4418.8537 
44146000    19.595596   -4705.3594   -4671.7732   -4705.3594            0    2179.2917    17.925464    23.207813    21.881661    9103.0077    2328.3368    1922.7896    2286.7487    207.17367   -138.25795   -120.13858   -4382.4547 
44147000    18.632347   -4705.6202    -4673.685   -4705.6202            0     1957.494    17.864105    23.232977    21.925591    9099.9171    1846.2607    2055.7336    1970.4877    91.263747    252.57602    156.80937   -4413.9002 
44148000    18.742112   -4706.1951   -4674.0717   -4706.1951            0    2033.6054    17.940607    23.217087    21.855996    9103.6482    1712.0534    2209.3501    2179.4126    157.09265   -353.32974    48.802659   -4404.0753 
44149000    21.575257   -4704.5453    -4667.566   -4704.5453            0    2067.0714    17.840025    23.281302    21.913914    9101.7036    2220.9041    2177.5086    1802.8015   -297.24629    273.00526    105.53419    -4393.185 
44150000    20.548217   -4707.3796   -4672.1607   -4707.3796            0    1978.4441    17.875371     23.24596     21.90718    9103.0941    2076.0539    2088.0929    1771.1855    141.07843   -36.343816    128.03449   -4409.5038 
44151000    20.804421   -4704.3621    -4668.704   -4704.3621            0    2027.8716    17.834047    23.315926    21.890831    9102.5869    2074.5944    2108.2171    1900.8034   -188.42398   -55.570206    68.362516   -4399.5002 
44152000    19.307475   -4706.6702   -4673.5778   -4706.6702            0    1938.4104    17.857227    23.193333    21.982054    9104.2768     1997.405    2351.7608    1466.0654    167.85815   -144.09971   -12.459037   -4416.2024 
44153000    20.427188   -4705.4626   -4670.4511   -4705.4626            0    1984.3227    17.886866    23.288487    21.865798    9108.3743    1709.3623    1876.8661    2366.7397   -45.272883   -35.336695   -149.70675    -4406.861 
44154000    19.549732   -4706.2307   -4672.7231   -4706.2307            0    1978.0437    17.875571    23.330529    21.829249    9103.8123    2105.7314    1764.4193    2063.9803   -178.46339   -133.09933    55.367712   -4410.0987 
44155000    19.970255   -4705.1952   -4670.9669   -4705.1952            0     2108.135    17.892379     23.27036    21.851207    9098.0142    1935.0245    1466.0645     2923.316   -212.26201    79.626144    21.051953   -4391.2485 
44156000    18.968007    -4707.934   -4675.4234    -4707.934            0    1604.5863    17.860426    23.340376    21.893006    9126.5173    1584.2112    1498.8604    1730.6874   -52.349307   -188.22821   -78.788822   -4461.8516 
44157000    20.017792   -4706.4155   -4672.1056   -4706.4155            0    2134.4715    17.842325    23.224241    21.950033    9095.5331    2227.4447    2588.4976    1587.4721   -147.71277    175.51783    148.24434   -4388.9701 
44158000    20.261599   -4706.7466   -4672.0189   -4706.7466            0    1911.3965    17.865211    23.307847    21.881528     9111.459    2091.7006    1725.6816    1916.8073     182.9441   -182.42686    -45.47846   -4418.0301 
44159000    20.033214   -4705.8414   -4671.5051   -4705.8414            0    2196.4655    17.882705    23.302782    21.821496    9093.3833    2067.7861    2283.2584     2238.352   -118.11556   -87.445878    133.56091    -4380.215 
44160000    20.250364   -4703.6284     -4668.92   -4703.6284            0     1931.953    17.857847    23.330946    21.866758    9110.5765    2289.0971    1797.6602    1709.1017   -71.819081    39.305625    63.018234   -4412.2244 
44161000    19.637496   -4706.5178   -4672.8598   -4706.5178            0    2060.4617    17.928015    23.244094    21.844367    9102.9951    1961.1445    2298.7144    1921.5263   -158.70699   0.73566727   -37.410951   -4399.3173 
44162000    19.544156    -4706.686    -4673.188    -4706.686            0    1918.3045    17.903055    23.234766    21.889336    9105.3792    1544.7264    2299.3726    1910.8145   -66.345223   -68.430249    30.658917   -4418.4513 
44163000    20.179301   -4704.9179   -4670.3313   -4704.9179            0    2120.2719    17.920006    23.189202    21.919883    9108.8217    1899.9169    2607.2251    1853.6737     35.59964    104.31475    88.179705   -4388.6684 
44164000    19.917998   -4706.5194   -4672.3806   -4706.5194            0    1895.1514    17.869866    23.294241    21.887887    9111.1608    1819.4926    1920.3948    1945.5668    3.7324452   -29.488808     161.1607   -4420.5587 
44165000    20.310409   -4705.8935   -4671.0822   -4705.8935            0     2140.689     17.89525    23.302726    21.812433    9095.9615    2032.4005    1887.2424    2502.4241    6.2611243   -226.48011   -92.955492   -4387.1085 
44166000    20.642202   -4706.0113   -4670.6313   -4706.0113            0    1770.6259    17.875319    23.274787    21.913265     9116.888    1948.1242     1531.692    1832.0616    54.712217    24.082258    193.48731   -4435.2081 
44167000    19.991897   -4707.2522   -4672.9868   -4707.2522            0    1895.9693    17.887834    23.256091    21.903487    9111.8746    1859.4955    2088.3619    1740.0506    48.946472   -195.69848    20.096073   -4421.0364 
44168000    21.048839   -4704.3284   -4668.2514   -4704.3284            0    1973.3137    17.848338    23.271838    21.934685      9110.87    2118.6334    2333.5038    1467.8039     -442.365    75.253303    104.06605   -4406.0519 
44169000    20.799677   -4704.0148   -4668.3649   -4704.0148            0     1968.736    17.906892    23.246789    21.871791    9104.7396    2194.2309    1811.1246    1900.8523    144.24426   -170.49354   -41.635231   -4406.9496 
44170000    20.091201   -4705.9843   -4671.5487   -4705.9843            0    1934.5441    17.974722    23.206573    21.835279    9108.1868    1825.2816    2189.0494    1789.3012   -287.15858    29.662177    157.10142   -4414.5763 
44171000    20.166213   -4705.8975   -4671.3333   -4705.8975            0    2131.6445    17.919037    23.192605    21.893729    9098.7963    2104.5922    2273.8032    2016.5381    49.458943   -198.62398    145.99866   -4388.4713 
44172000     20.44844   -4706.4985   -4671.4505   -4706.4985            0    1834.9839     17.88313    23.310033    21.847385    9107.2212     2137.193     1592.594    1775.1647   -140.90223   -145.02956    73.825821   -4427.7289 
44173000    19.586256   -4705.5229   -4671.9527   -4705.5229            0    2255.1947    17.878892     23.27038    21.851782    9091.4035    1818.6688    2469.4084    2477.5068    261.23288    59.770432    47.343323   -4372.9392 
44174000    19.636943   -4706.8494   -4673.1923   -4706.8494            0    1859.2708    17.927928    23.254373    21.858199    9112.7427    1758.1995    1797.3083    2022.3047    -106.0241    24.241905   -20.962511   -4426.0952 
44175000    20.441868   -4704.5648   -4669.5281   -4704.5648            0    2042.4274    17.854924    23.315499     21.87647    9107.0967     2098.057    1853.9869    2175.2382    131.56656    5.9749463     99.37832   -4398.2577 
44176000    19.914258   -4706.2538   -4672.1214   -4706.2538            0    2058.4906    17.942965    23.195764    21.872732    9103.4483    1878.7771     2197.927    2098.7676   -169.75293    53.578668    8.9047516    -4398.827 
44177000    19.881746   -4703.2136    -4669.137   -4703.2136            0    1955.9767    17.900607    23.272583    21.864953    9108.7942    2009.1046    1848.4736    2010.3519     231.5268   -21.261209    33.948499   -4409.3003 
44178000    20.994674   -4705.7279   -4669.7437   -4705.7279            0    1941.0105    17.896117     23.25773    21.897586    9114.2801    1902.2989    2235.3714    1685.3611   -168.74583    63.086756   -4.0676925   -4411.7399 
44179000    20.340711   -4706.4471   -4671.5838   -4706.4471            0    1855.8908    17.950034    23.257472    21.828918    9112.9707    1486.9808     1987.609    2093.0826   -15.761268    39.139407    157.08078   -4424.9297 
44180000     19.54762   -4705.2197   -4671.7157   -4705.2197            0    2023.6207    17.821571    23.323496    21.891898    9099.6158    2121.5889    1812.3657    2136.9075   -33.563031   -57.259842   -11.359774   -4403.1639 
44181000    20.236369   -4704.5862   -4669.9018   -4704.5862            0    2160.7768    17.827148    23.298321    21.910328     9100.293    2272.2969    1982.4014    2227.6321    275.59685   -50.587171    221.93954   -4383.1268 
44182000    20.849026   -4704.4037   -4668.6692   -4704.4037            0     1972.189     17.92357    23.269683    21.843817    9110.5274     1839.434    2083.9785    1993.1544   -192.45994   -129.84984     213.2318    -4406.629 
44183000    19.217253   -4704.8692   -4671.9314   -4704.8692            0    1985.7218    17.820678    23.327784    21.895552    9102.3519     2218.431    2019.6834    1719.0512    50.270434    188.60398    82.872652   -4408.3299 
44184000    19.875626   -4706.8201    -4672.754   -4706.8201            0    1951.5466    17.902532    23.267184    21.845245    9099.4513    1818.1785    2228.0923    1808.3689   -423.59536    46.504017    -224.3273   -4413.7717 
44185000     20.32249   -4704.0452   -4669.2131   -4704.0452            0    2110.0247    17.907766    23.256329    21.839796    9095.5959    1994.3012    2046.8618    2288.9111   -15.617509   -20.842241    87.587202   -4389.3185 
44186000     19.93353   -4703.4549   -4669.2895   -4703.4549            0    1848.8943    17.948148    23.207932    21.866212    9108.1387    1849.8992    1796.9804    1899.8032    -307.8334   -114.24827   -93.936926   -4423.6956 
44187000    19.628524   -4705.9775   -4672.3349   -4705.9775            0    2006.8357      17.7948    23.282732    21.989308     9110.425    2345.0455    1936.3145    1739.1472    71.003806    28.007548    87.559956   -4405.6942 
44188000    21.186242   -4704.0202   -4667.7077   -4704.0202            0    1947.8246    17.863939    23.208305    21.959048    9104.0398    2067.9301    1934.1717    1841.3721   -282.18519   -181.28976    36.319456   -4409.0891 
44189000    19.729267   -4706.7116   -4672.8963   -4706.7116            0    2106.6195    17.881018    23.286992    21.849727    9098.1198    2003.9738    2048.9228    2266.9621   -423.95087    10.675551   -166.72376   -4393.3758 
44190000    20.954315   -4703.5018   -4667.5868   -4703.5018            0    1983.1806    17.858157    23.262744    21.922755    9107.3641    2189.1267    1928.8107    1831.6046   -142.73925    54.825778   -18.995759   -4404.1777 
44191000    20.472142   -4706.1996    -4671.111   -4706.1996            0    1867.4728    17.912936    23.342977    21.768441    9102.2829     1867.032    1721.2638    2014.1225   -185.70225    170.25835     121.0286   -4423.2087 
44192000    19.764786    -4704.003   -4670.1268    -4704.003            0    2077.1768    17.833699    23.320273    21.884307    9101.3928    2359.9793     2042.526    1829.0251    243.52806     -71.1911    163.66721   -4394.4138 
44193000    20.036635   -4705.4311    -4671.089   -4705.4311            0    1873.5415    17.917621    23.206072    21.912386    9111.1177    2332.0463    1871.9468    1416.6314    -26.99412    107.14337   -113.11318   -4422.1397 
44194000    21.063939   -4704.4835   -4668.3807   -4704.4835            0    2005.0255    17.861416    23.261099    21.908747    9102.5624    2451.2851    1871.7108    1692.0805   -251.84399    4.8952157     155.5136   -4402.2105 
44195000    20.871624   -4707.3924   -4671.6192   -4707.3924            0    1846.1454    17.866222    23.301608    21.868003    9103.9056    2072.0745     1692.834    1773.5277   -71.115464   -89.518941    84.722959   -4426.5044 
44196000    20.014899   -4705.3274   -4671.0225   -4705.3274            0    1939.9731    17.827901    23.270952    21.934525    9100.0252    2092.9907    1832.8432    1894.0856   -336.98117   -50.450951    92.595838   -4413.5599 
44197000    19.812796   -4704.2984   -4670.3399   -4704.2984            0    1896.0051    17.841506    23.327736    21.900135    9114.8789    2076.8016    1739.8285    1871.3852    39.824071   -209.30627    79.069658   -4418.3018 
44198000    20.471788   -4705.9159    -4670.828   -4705.9159            0    2154.2701    17.857104     23.27754     21.89097    9099.4073    2144.4438     2197.555    2120.8114   -56.574495    79.632303    142.10716   -4384.9444 
44199000     20.56766   -4703.7608   -4668.5085   -4703.7608            0     1909.983    17.872207    23.242324    21.913494    9102.6821    1923.7516     2055.187    1751.0103   -279.16273    -4.761943    -29.69457    -4414.952 
44200000    20.370042   -4706.3511   -4671.4375   -4706.3511            0    1939.7774    17.982034    23.140719     21.88332    9106.0258     1555.522    2117.5447    2146.2656   -117.90139    -30.56419   -37.809146   -4413.8311 
44201000    20.283787   -4705.2954   -4670.5296   -4705.2954            0     2061.844    17.916037    23.228896    21.862583    9098.5462     2029.609    2020.3861    2135.5369    313.05141   -144.40244    34.957721   -4396.9375 
44202000    20.483312   -4705.6136   -4670.5059   -4705.6136            0    1922.8749    17.830154     23.21734    21.997669    9106.3474    2094.4037    2282.8963    1391.3247    97.917181    210.20409    73.390154   -4415.1351 
44203000    19.589828   -4705.6598   -4672.0835   -4705.6598            0    2138.8719    17.883558    23.291558    21.842785     9098.305    2072.3739    2190.6481    2153.5936   -15.819731   -106.57253   -264.15151   -4388.2778 
44204000    19.141183   -4704.9008   -4672.0935   -4704.9008            0    1972.6447    17.770738    23.383885    21.915055    9106.7771    2022.4327    1947.0539    1948.4474    263.74987    116.43631    159.35735   -4410.1006 
44205000    19.196929   -4706.2177   -4673.3148   -4706.2177            0    1976.6923    17.874226    23.339319    21.827416    9105.7927    1826.0998    2050.7282    2053.2491   -161.06854    27.088594    34.987903   -4410.8128 
44206000    19.768342   -4706.6611   -4672.7788   -4706.6611            0    2011.1905    17.877141    23.272168    21.884864    9104.9747    2363.7944    1648.4251    2021.3518   -103.37059   -117.11643     201.7627   -4405.7194 
44207000    19.518571   -4704.8846   -4671.4305   -4704.8846            0    2074.7199    17.881037    23.288138      21.8389    9094.0686    1766.8249    1850.3031    2607.0317     -153.023     50.84337     192.6878   -4396.2652 
44208000    20.394014   -4704.6695   -4669.7148   -4704.6695            0    1851.8088    17.977403    23.196706    21.837736    9106.6969    1376.6291    2378.4381    1800.3593   -185.76374    -10.94853    3.5259371   -4423.7727 
44209000    19.504975   -4705.6627   -4672.2318   -4705.6627            0    1997.3969    17.934884    23.301158     21.79023    9106.2145    2138.1462    1968.8008    1885.2437   -292.74648    229.62621    196.20487   -4406.9679 
44210000    20.321003   -4702.5456   -4667.7161   -4702.5456            0    2090.9884    17.896177    23.206323    21.922021    9104.3132    2534.1202      1743.85     1994.995    3.3716359   -45.723458   -166.62597   -4390.0808 
44211000    19.921388   -4706.2084   -4672.0638   -4706.2084            0    2076.5538    17.872587    23.287249    21.863303    9099.5805    2102.6301    2009.6949    2117.3363     196.5144     65.13978    162.30212   -4396.4884 
44212000    19.786946   -4704.9882    -4671.074   -4704.9882            0    1938.0315    17.881839    23.293805    21.869747    9109.5385    1678.3468    2043.3426     2092.405   -12.311058   -164.51186   -124.53296   -4413.6002 
44213000    21.430168   -4706.0386    -4669.308   -4706.0386            0    2051.3866    17.887087     23.20483     21.92077     9098.584    1816.8837    2438.7253    1898.5509    52.066074    136.17321     110.2643   -4397.1023 
44214000    20.511072   -4706.6313    -4671.476   -4706.6313            0    2039.8407     17.81028    23.301497    21.919392     9096.683    1920.0081    2262.8357    1936.6782   -52.452627   -271.80249   -70.844852   -4400.8589 
44215000    18.184645   -4705.7402   -4674.5723   -4705.7402            0    2058.8391    17.957154     23.19878    21.846174    9100.7677     1723.459    1987.8764    2465.1818    35.011709   -37.969164   -50.188432   -4401.3122 
44216000    19.776725   -4706.3488   -4672.4521   -4706.3488            0    1896.7711    17.913227    23.262683     21.85674    9107.9163    2125.0867    1701.3944    1863.8322    -187.6041    1.7533604    255.96822   -4420.5048 
44217000    19.963647    -4707.215    -4672.998    -4707.215            0    2159.0372    17.962369    23.251104    21.782985     9097.553    2128.9723     2376.767    1971.3724   -42.589703    24.082472     102.2578   -4386.5402 
44218000    20.584523   -4705.3738   -4670.0926   -4705.3738            0    1860.4253    17.864552    23.222899    21.959743    9110.3658    1957.7011    2273.0695    1350.5053   -150.98118    -16.42524    57.066012   -4422.9066 
44219000    20.113807   -4704.4326   -4669.9582   -4704.4326            0    1804.2245    17.852104    23.302913    21.910568    9114.9283     2008.258    1868.2331    1536.1823    5.6503886    200.47744   -94.066616   -4430.1193 
44220000    19.493611   -4706.0945   -4672.6831   -4706.0945            0    2031.5849    17.856823    23.325227    21.847126    9099.6437    2248.9383    2225.8948    1619.9218   -16.400218    128.58239    212.41862   -4403.0736 
44221000    20.313466   -4706.0537   -4671.2371   -4706.0537            0    2091.6666    17.817914    23.307991    21.918212    9102.6286    2169.0607    2080.6392    2025.2999    77.604793    162.72303    34.945756   -4393.5631 
44222000    19.569661   -4705.1198   -4671.5781   -4705.1198            0    1959.7267    17.953295    23.205723     21.84788    9102.2461    1505.8781    1717.3225    2655.9796   -429.97881     42.51802    111.41451   -4411.4304 
44223000    19.298048   -4705.6333   -4672.5571   -4705.6333            0    2136.7881     17.91195    23.236296    21.862409    9099.2962    1896.4768    2164.6634    2349.2243    6.7808559    -252.7513   -219.13028    -4388.997 
44224000    20.471872   -4705.8278   -4670.7397   -4705.8278            0    1848.3601    17.916692    23.179466    21.930675    9107.7955    1569.3659    2217.4678    1758.2466    108.48613    75.894151     265.6798    -4425.226 
44225000    19.370641   -4705.9609   -4672.7603   -4705.9609            0    2027.2485    17.924173    23.290618    21.817205     9107.921    1581.6986    2161.7193    2338.3274   -202.83233   -169.67424   -132.84636   -4403.4815 
44226000     20.47309   -4705.7076   -4670.6175   -4705.7076            0    1929.3088    17.917848    23.235471    21.883174    9110.6141    1807.8705    1856.0643    2123.9918    -120.1489    388.56887    353.88988   -4414.2722 
44227000    20.723979    -4702.756   -4667.2358    -4702.756            0    1971.2616    17.910727    23.209673    21.910564    9108.2681    2165.8962    2130.3194    1617.5693   -51.172938   -114.65156   -6.7061436   -4405.3837 
44228000    20.777471   -4704.1741   -4668.5623   -4704.1741            0    1988.1259    17.760855    23.398829    21.880663    9093.2359    2402.3511    1583.0738     1978.953    22.044529    60.549664    134.66601   -4404.9059 
44229000     20.83812   -4705.9671   -4670.2513   -4705.9671            0    1994.0352    17.859078     23.23858    21.939793    9105.4442    2138.5441    2085.3207    1758.2407    324.06689    114.72966    157.10634   -4405.4563 
44230000    20.551708   -4703.9927   -4668.7678   -4703.9927            0    1911.7821    17.912829    23.303324    21.833484    9113.9173    1630.5969    1801.6279    2303.1214    74.018612   -5.8338437    265.29315   -4414.6592 
44231000    20.027312    -4703.794   -4669.4679    -4703.794            0    1990.9662    17.842705    23.290511    21.918767    9108.6882    2143.8373    1807.5783    2021.4831    29.803953   -65.428901     75.76315   -4404.9862 
44232000    19.677974   -4704.9841   -4671.2568   -4704.9841            0     1999.268    17.896023    23.338897     21.78856    9100.5028    1943.4346    1779.3449    2275.0244   -689.93307   -446.50384   -203.42317   -4405.9109 
44233000    20.348277    -4706.059   -4671.1828    -4706.059            0    1987.5213    17.900662    23.256967    21.867285    9103.6815    1996.5099    1715.9071    2250.1469    242.77384    129.89753    173.06273   -4407.3038 
44234000    20.865973   -4705.2922   -4669.5286   -4705.2922            0    1982.2734    17.882133    23.336378    21.814792    9103.4046    2084.3353    1680.9002    2181.5848   -103.47988   -178.62041    9.6451451   -4406.3544 
44235000    19.890165   -4706.3716   -4672.2806   -4706.3716            0     1913.694    17.853734    23.307448    21.884554    9106.7093    1743.1941    1829.9044    2167.9833   -103.20042    137.77897    54.016309    -4418.119 
44236000    21.286987   -4708.6021   -4672.1169   -4708.6021            0    1923.7016    17.936818    23.249736    21.826644    9102.2841    1887.1652    1952.8859    1931.0537   -414.42097   -116.34012   -37.145137   -4416.7504 
44237000    19.685372   -4705.5546   -4671.8145   -4705.5546            0    1954.9751     17.89928    23.305023    21.814822     9099.903    2225.9805    1771.7511    1867.1937    22.173291   -29.488708    101.08874   -4412.3644 
44238000    20.805437   -4705.2016   -4669.5417   -4705.2016            0    2034.1383    17.897405    23.252496    21.861283    9097.7773    2142.0967    2154.2183    1806.0999    363.25125   -133.77767   -45.468154   -4399.6487 
44239000    19.842623   -4704.9579   -4670.9484   -4704.9579            0    1869.7751    17.836625    23.272331     21.93103    9103.5671    1778.6344    1987.2112    1843.4796    119.29286    -145.1737    290.17687   -4422.7055 
44240000    20.117173   -4704.4349   -4669.9547   -4704.4349            0    2027.4303      17.8892    23.198678    21.928858     9100.603    1891.5137    2665.9915    1524.7858   -352.07258    18.908492   -76.689905   -4400.8682 
44241000    19.867296   -4706.8469    -4672.795   -4706.8469            0    1908.1268    17.871186    23.351992    21.813188    9103.2495    1971.3628    1713.6225     2039.395    68.664185   -39.964526    88.902414   -4419.4691 
44242000     19.53926    -4704.545   -4671.0554    -4704.545            0    2005.7597    17.880771    23.252669    21.871783    9093.7545    2148.2012    2059.9451    1809.1328    -65.82509     189.8468   -90.814479   -4405.0454 
44243000    20.544979   -4704.0756   -4668.8622   -4704.0756            0    2016.2582     17.92353     23.25297    21.855039    9108.6404    2200.1595    1881.7807    1966.8345    17.822155    104.45344   -93.468413   -4401.0221 
44244000      20.7893   -4706.5681   -4670.9359   -4706.5681            0    1903.1824    17.895076    23.314777    21.840416    9112.2524    1731.9746    1857.4606    2120.1121    -36.93031    218.30352   -14.206334   -4418.0166 
44245000    20.184217   -4702.8507   -4668.2556   -4702.8507            0    1902.5022    17.893979    23.228981    21.929388    9115.1456    1766.5879    1970.1165    1970.8022    169.13612   -161.97367   -53.788122   -4415.3464 
44246000    20.409949   -4706.1817   -4671.1997   -4706.1817            0    2217.8761    17.874702    23.305244    21.838367    9097.3025    2247.6272    2279.3786    2126.6225    218.08168    136.38886   -12.055455   -4376.9434 
44247000    20.723193   -4707.4193   -4671.9004   -4707.4193            0    1918.3793    17.924737    23.275985    21.841471    9112.6089    1869.0616    1844.6574    2041.4189    42.898933   -80.846038       133.16   -4416.9516 
44248000    21.133708   -4704.5817   -4668.3593   -4704.5817            0    2213.8394    17.890388    23.231837    21.878839    9093.4268    2251.6274    2041.4724    2348.4183   -261.57644    85.129208   -20.674504   -4374.7636 
44249000    19.392353   -4706.0669   -4672.8291   -4706.0669            0    1892.8459    17.901996    23.223434    21.909285    9108.6941     1575.009    1959.9364    2143.5924   -444.79079    14.567929    108.17383   -4421.3816 
44250000    21.564946   -4705.3684   -4668.4068   -4705.3684            0    2106.6116    17.902786    23.293048    21.832185    9104.2496    1921.1302    2112.0477    2286.6568    401.69271    -3.989206     -46.8492   -4388.6991 
Loop time of 349.464 on 64 procs for 250000 steps with 864 atoms

Performance: 123.618 ns/day, 0.194 hours/ns, 715.382 timesteps/s
389.0% CPU use with 16 MPI tasks x 4 OpenMP threads

MPI task timing breakdown:
Section |  min time  |  avg time  |  max time  |%varavg| %total
---------------------------------------------------------------
Pair    | 23.383     | 26.727     | 30.03      |  43.1 |  7.65
Bond    | 1.4778     | 1.8067     | 2.4187     |  18.6 |  0.52
Kspace  | 187.35     | 192.94     | 199.32     |  25.5 | 55.21
Neigh   | 0.076812   | 0.083289   | 0.093869   |   1.8 |  0.02
Comm    | 44.624     | 49.548     | 53.292     |  36.7 | 14.18
Output  | 0.43705    | 0.43737    | 0.43884    |   0.1 |  0.13
Modify  | 55.925     | 62.387     | 68.145     |  50.5 | 17.85
Other   |            | 15.54      |            |       |  4.45

Nlocal:        54.0000 ave          61 max          47 min
Histogram: 3 2 2 1 0 1 0 1 2 4
Nghost:        2595.94 ave        2625 max        2575 min
Histogram: 2 5 1 0 1 1 2 1 1 2
Neighs:        13368.9 ave       15151 max       11813 min
Histogram: 4 3 1 0 1 0 0 2 1 4

Total # of neighbors = 213903
Ave neighs/atom = 247.57292
Ave special neighs/atom = 2.0000000
Neighbor list builds = 250
Dangerous builds = 0

unfix		3
unfix		2
unfix		1

write_data	data.final.${pid} nocoeff
write_data	data.final.1 nocoeff
System init for write_data ...
PPPM initialization ...
  extracting TIP4P info from pair style
  using 12-bit tables for long-range coulomb (../kspace.cpp:340)
  G vector (1/distance) = 0.37224182
  grid = 24 27 25
  stencil order = 5
  estimated absolute RMS force accuracy = 0.0030966519
  estimated relative force accuracy = 9.3254753e-06
  using double precision FFTW3
  3d grid and FFT values/proc = 6300 1296
Last active /omp style is kspace_style pppm/tip4p/omp

write_restart   restart.lmp.${pid}
write_restart   restart.lmp.1
System init for write_restart ...
PPPM initialization ...
  extracting TIP4P info from pair style
  using 12-bit tables for long-range coulomb (../kspace.cpp:340)
  G vector (1/distance) = 0.37224182
  grid = 24 27 25
  stencil order = 5
  estimated absolute RMS force accuracy = 0.0030966519
  estimated relative force accuracy = 9.3254753e-06
  using double precision FFTW3
  3d grid and FFT values/proc = 6300 1296
Last active /omp style is kspace_style pppm/tip4p/omp
Total wall time: 0:05:49
