LAMMPS (30 Jul 2021)
  using 1 OpenMP thread(s) per MPI task
package omp 0
using multi-threaded neighbor list subroutines
echo both

include		in.partitions
variable        pid world 0
include		in.temp
variable        temperature equal 265
variable	tempDamp equal 100.0
include		in.pressure
variable        pressure equal 2000
variable        pressureDamp equal 1000.0 # This is 1 ps
include		in.seed
variable        seed world 745823

units		real
atom_style	full
include		in.box
read_data       iceIII.data
Reading data file ...
  orthogonal box = (0.0071020000 0.0044740000 -0.050387000) to (46.652896 19.995527 20.750385)
  8 by 2 by 2 MPI processor grid
  reading atoms ...
  2268 atoms
  scanning bonds ...
  2 = max bonds/atom
  scanning angles ...
  1 = max angles/atom
  reading bonds ...
  1512 bonds
  reading angles ...
  756 angles
Finding 1-2 1-3 1-4 neighbors ...
  special bond factors lj:    0        0        0       
  special bond factors coul:  0        0        0       
     2 = max # of 1-2 neighbors
     1 = max # of 1-3 neighbors
     1 = max # of 1-4 neighbors
     2 = max # of special neighbors
  special bonds CPU = 0.003 seconds
  read_data CPU = 0.043 seconds
include 	in.setup
variable	out_freq equal 500
variable	out_freq2 equal 500

timestep	2.0

neigh_modify    delay 7 every 1

include		in.tip4p
# This is TIP4P/Ice

# create groups ###
group ox type 2
756 atoms in group ox
group hy type 1
1512 atoms in group hy

# set charges - beside manually ###
set group ox charge -1.1794
Setting atom values ...
  756 settings made for charge
set group hy charge 0.5897
Setting atom values ...
  1512 settings made for charge

# ### TIP3P Potential Parameters ###
pair_style lj/cut/tip4p/long 2 1 1 1 0.1577 8.5
pair_coeff 1 1*2 0.000 0.000
pair_coeff 2 2 0.21084 3.1668
bond_style  harmonic
bond_coeff  1 450 0.9572
angle_style harmonic
angle_coeff 1 55 104.52
kspace_style pppm/tip4p 1.0e-5
pair_modify tail yes

thermo          ${out_freq}
thermo          500
thermo_style 	custom step temp pe etotal epair emol press lx ly lz xy xz yz vol pxx pyy pzz pxy pxz pyz cella cellb cellc cellalpha cellbeta cellgamma

restart 	${out_freq} restart.lmp.${pid} restart2.lmp.${pid}
restart 	500 restart.lmp.${pid} restart2.lmp.${pid}
restart 	500 restart.lmp.0 restart2.lmp.${pid}
restart 	500 restart.lmp.0 restart2.lmp.0


include         in.dump
dump            myDump all atom ${out_freq2} dump.water.${pid}
dump            myDump all atom 500 dump.water.${pid}
dump            myDump all atom 500 dump.water.0
dump            myDump2 all dcd ${out_freq2} dump.dcd
dump            myDump2 all dcd 500 dump.dcd
dump_modify     myDump append yes
dump_modify     myDump2 append yes


timer           timeout 04:55:00 every 1000
New timer settings: style=normal  mode=nosync  timeout=04:55:00

fix 		1 all shake 1e-6 200 0 b 1 a 1
       0 = # of size 2 clusters
       0 = # of size 3 clusters
       0 = # of size 4 clusters
     756 = # of frozen angles
  find clusters CPU = 0.001 seconds
fix             2 all nph aniso ${pressure} ${pressure} ${pressureDamp}
fix             2 all nph aniso 2000 ${pressure} ${pressureDamp}
fix             2 all nph aniso 2000 2000 ${pressureDamp}
fix             2 all nph aniso 2000 2000 1000
fix             3 all temp/csvr ${temperature} ${temperature} ${tempDamp} ${seed}
fix             3 all temp/csvr 265 ${temperature} ${tempDamp} ${seed}
fix             3 all temp/csvr 265 265 ${tempDamp} ${seed}
fix             3 all temp/csvr 265 265 100 ${seed}
fix             3 all temp/csvr 265 265 100 745823
velocity 	all create ${temperature} ${seed} dist gaussian
velocity 	all create 265 ${seed} dist gaussian
velocity 	all create 265 745823 dist gaussian

run             500000
PPPM initialization ...
  extracting TIP4P info from pair style
  using 12-bit tables for long-range coulomb (../kspace.cpp:340)
  G vector (1/distance) = 0.3731327
  grid = 48 27 27
  stencil order = 5
  estimated absolute RMS force accuracy = 0.0032773105
  estimated relative force accuracy = 9.8695233e-06
  using double precision FFTW3
  3d grid and FFT values/proc = 6292 1344
Last active /omp style is kspace_style pppm/tip4p/omp
Neighbor list info ...
  update every 1 steps, delay 7 steps, check yes
  max neighbors/atom: 2000, page size: 100000
  master list distance cutoff = 10.8154
  ghost atom cutoff = 10.8154
  binsize = 5.4077, bins = 9 4 4
  1 neighbor lists, perpetual/occasional/extra = 1 0 0
  (1) pair lj/cut/tip4p/long/omp, perpetual
      attributes: half, newton on, omp
      pair build: half/bin/newton/omp
      stencil: half/bin/3d
      bin: standard
Per MPI rank memory allocation (min/avg/max) = 9.589 | 9.604 | 9.621 Mbytes
Step Temp PotEng TotEng E_pair E_mol Press Lx Ly Lz Xy Xz Yz Volume Pxx Pyy Pzz Pxy Pxz Pyz Cella Cellb Cellc CellAlpha CellBeta CellGamma 
       0          265   -11706.567   -10513.006   -11706.567            0     2327.638    46.645794    19.991053    20.800772            0            0            0     19396.69    5296.8319    3300.8829   -1614.8009    1637.4705   -1528.8494   -180.25186    46.645794    19.991053    20.800772           90           90           90 
     500    265.42624   -10878.664    -9683.183   -10878.664            0    1162.3037    47.081543    20.104926    21.030078            0            0            0    19906.461     1901.107    760.27864    825.52535   -299.05365    545.01273   -625.83327    47.081543    20.104926    21.030078           90           90           90 
    1000    263.78649   -10900.057   -9711.9613   -10900.057            0    1705.4946    46.969127    20.212401     20.91197            0            0            0    19852.963    2277.1854    1409.7487    1429.5497    253.47577    307.80023     146.1573    46.969127    20.212401     20.91197           90           90           90 
    1500    270.03366   -10892.862   -9676.6296   -10892.862            0    2271.5664    46.689219    20.224736    21.060467            0            0            0    19886.918    3966.1278    515.81214    2332.7593    52.030937    476.51653    558.49231    46.689219    20.224736    21.060467           90           90           90 
    2000    268.52557   -10908.826   -9699.3861   -10908.826            0    1496.4882     46.94076    20.249857    20.976346            0            0            0    19938.933    2044.6161    904.91702    1539.9317    52.332247   -545.74822    851.34375     46.94076    20.249857    20.976346           90           90           90 
    2500    270.72057   -10874.018   -9654.6918   -10874.018            0    2764.1299    47.131292    19.973333    21.122714            0            0            0    19884.268    2530.5986    3130.0473    2631.7438    95.402361   -642.67911    148.08067    47.131292    19.973333    21.122714           90           90           90 
    3000    265.22224   -10891.469   -9696.9075   -10891.469            0    2649.0603     47.04153    20.035341     20.94616            0            0            0    19741.611    1927.9986    3210.2787    2808.9036    319.88146    -90.85041    82.547479     47.04153    20.035341     20.94616           90           90           90 
    3500    260.22436   -10907.762   -9735.7107   -10907.762            0    2216.0163    46.976196    20.078804    21.035706            0            0            0    19841.422    2042.4595    2576.6056    2028.9837   -32.447822    848.75097   -554.85177    46.976196    20.078804    21.035706           90           90           90 
    4000    258.97506   -10928.526   -9762.1017   -10928.526            0    1542.6529     47.03651    20.139699    21.044129            0            0            0    19935.127    349.76956    2452.9733    1825.2159   -157.42549   -406.89094    310.68917     47.03651    20.139699    21.044129           90           90           90 
    4500    266.23991   -10921.179   -9722.0329   -10921.179            0    1174.9423    47.166951    20.169048    21.067635            0            0            0    20041.905    367.33021    1700.3964    1457.1004   -199.38224   -343.48222    649.03598    47.166951    20.169048    21.067635           90           90           90 
    5000    264.88053   -10863.041   -9670.0177   -10863.041            0    1235.9783     47.48015    20.098607    21.107357            0            0            0    20142.431    1066.3701     1326.441    1315.1238    330.44447   -217.40097    1431.4837     47.48015    20.098607    21.107357           90           90           90 
    5500    260.74173   -10944.955   -9770.5733   -10944.955            0    2353.0939    47.068935    20.175401    20.972404            0            0            0    19916.121    2560.4993    2010.2001    2488.5824   -23.627762    -413.0911   -146.27147    47.068935    20.175401    20.972404           90           90           90 
    6000    271.58774   -10882.069   -9658.8365   -10882.069            0     757.3962    47.120195    20.207469    21.044747            0            0            0    20038.385    1265.7802    368.84736    637.56107   -5.5374811    269.99852   -397.65187    47.120195    20.207469    21.044747           90           90           90 
    6500    264.27128   -10909.528   -9719.2487   -10909.528            0    1228.7095    46.977644    20.261534    20.923316            0            0            0    19915.631   -233.34448    3016.1698     903.3033   -98.964004   -161.78726   -645.58481    46.977644    20.261534    20.923316           90           90           90 
    7000     265.3096   -10887.522   -9692.5669   -10887.522            0    2810.2105     46.74299    20.113659    21.061785            0            0            0    19801.713    3588.6526    2540.8054    2301.1734   -336.60057   -440.34348    964.75696     46.74299    20.113659    21.061785           90           90           90 
    7500    266.10475   -10888.294   -9689.7575   -10888.294            0    2450.7641    46.899029    20.105419     20.90558            0            0            0    19712.386    1864.5418    2755.0355    2732.7151   -125.47426    605.81863    227.89762    46.899029    20.105419     20.90558           90           90           90 
    8000    262.15297   -10900.623   -9719.8847   -10900.623            0     2153.283     47.21271    19.993914    21.103569            0            0            0     19921.07     1267.225    2142.8295    3049.7946    188.90898    149.05395   -555.55583     47.21271    19.993914    21.103569           90           90           90 
    8500    255.63632   -10890.555   -9739.1679   -10890.555            0     518.9294     47.10547    20.185519    21.073895            0            0            0    20038.079    1135.3157    514.57829   -93.105841    204.04126   -401.99738   -401.50886     47.10547    20.185519    21.073895           90           90           90 
    9000    272.17621    -10874.42   -9648.5368    -10874.42            0    2602.6262    46.914435    20.190084    21.021294            0            0            0    19911.504    3064.5466    2304.3575    2438.9744      59.7404    254.12469    652.78323    46.914435    20.190084    21.021294           90           90           90 
    9500    268.82465   -10882.947   -9672.1599   -10882.947            0    1195.2749    46.831984     20.15899    21.169342            0            0            0    19985.668    510.01483    1685.4955    1390.3145    268.10481    -12.48844    301.20653    46.831984     20.15899    21.169342           90           90           90 
   10000    274.93112   -10900.875   -9662.5839   -10900.875            0    2412.7261    47.383845    20.124878    20.922177            0            0            0    19951.265    2454.2065    1619.0177     3164.954   -200.80225   -466.89899   -373.42381    47.383845    20.124878    20.922177           90           90           90 
   10500    273.90791   -10878.978   -9645.2958   -10878.978            0    388.20581    47.140541    20.158794    21.157745            0            0            0    20106.129    894.23197    70.053794    200.33166   -266.63465   -78.244402    1063.8486    47.140541    20.158794    21.157745           90           90           90 
   11000    266.14851   -10897.757   -9699.0232   -10897.757            0    1691.1246    46.826925    20.086294    21.068888            0            0            0    19816.962     2194.986    1783.8514    1094.5362   -177.93038    24.428292   -73.792708    46.826925    20.086294    21.068888           90           90           90 
   11500    267.55005    -10907.24    -9702.194    -10907.24            0    2259.8597    47.048478    20.145817    20.919533            0            0            0    19828.161    2144.1401    2234.2507    2401.1883   -298.19002   -145.59714   -409.34239    47.048478    20.145817    20.919533           90           90           90 
   12000    268.72657   -10854.848   -9644.5029   -10854.848            0    845.64717    47.172773    20.153434    21.132081            0            0            0    20090.128    975.05339    1828.3016   -266.41347   -151.64428   -420.01367    1234.4158    47.172773    20.153434    21.132081           90           90           90 
   12500    272.33708   -10907.717   -9681.1096   -10907.717            0    1790.6654    46.922905    20.215444    20.975644            0            0            0    19896.811     2221.798    1788.5129    1361.6853    70.889948    397.15819   -198.04211    46.922905    20.215444    20.975644           90           90           90 
   13000    268.75558   -10874.214   -9663.7379   -10874.214            0    1969.9851    47.181788    20.096804    21.118516            0            0            0    20024.643    1565.1358    1764.7179    2580.1015    65.440413    94.153062   -191.77125    47.181788    20.096804    21.118516           90           90           90 
   13500    264.09707   -10942.325   -9752.8303   -10942.325            0    2826.3613    46.999225    20.000767      20.9793            0            0            0    19720.973    2732.7396    3182.4343      2563.91   -55.004542   -568.63555   -388.84286    46.999225    20.000767      20.9793           90           90           90 
   14000     259.0182   -10932.589     -9765.97   -10932.589            0    1733.4965    47.387826    19.964034    20.940646            0            0            0    19810.944    518.54274     2724.632    1957.3148    206.05174   -273.40254    280.99267    47.387826    19.964034    20.940646           90           90           90 
   14500    263.54497   -10920.803   -9733.7953   -10920.803            0    2228.2811     46.83275    20.194906    21.054655            0            0            0    19913.134    3131.6368    627.91638    2925.2901   -58.227935   -383.15601   -376.17269     46.83275    20.194906    21.054655           90           90           90 
   15000    268.53722   -10895.914   -9686.4214   -10895.914            0    1996.9975    46.967803    20.157091    21.078515            0            0            0    19955.752    2398.0183    1471.6411    2121.3332   -242.72745    364.87962    577.97693    46.967803    20.157091    21.078515           90           90           90 
   15500    270.46931   -10919.303   -9701.1078   -10919.303            0    2750.8774    46.886117    20.156704    20.996888            0            0            0     19843.52    2187.0689    2809.0875     3256.476   -69.360638   -211.34973     213.2015    46.886117    20.156704    20.996888           90           90           90 
   16000    271.27381   -10890.973   -9669.1551   -10890.973            0    2214.4885    47.532134    19.991367    20.994443            0            0            0    19949.598    1820.1325    2791.9871    2031.3459   -164.05304   -823.64953   -234.92916    47.532134    19.991367    20.994443           90           90           90 
   16500    271.41123   -10871.823   -9649.3862   -10871.823            0    2670.5994    46.789136    20.165967     21.01159            0            0            0    19825.447    2048.2703    3245.2577    2718.2701   -30.975331   -383.21419    227.14926    46.789136    20.165967     21.01159           90           90           90 
   17000    271.74152   -10923.204   -9699.2787   -10923.204            0    3005.4764    47.068482    20.044138    21.042513            0            0            0    19852.499    3017.3481    3474.5089    2524.5721   -591.52275   -764.98537    123.49057    47.068482    20.044138    21.042513           90           90           90 
   17500    270.39939   -10941.415   -9723.5347   -10941.415            0    1129.0746    47.192129    20.149397    21.100875            0            0            0    20064.673    352.31477    1869.8604    1165.0484    172.51981   -650.14378   -38.271003    47.192129    20.149397    21.100875           90           90           90 
   18000    266.33219   -10951.195   -9751.6341   -10951.195            0    2595.8188    46.817866    20.212489    20.943309            0            0            0     19818.77    2646.9711    2265.5305     2874.955    228.97698    410.59949    31.428001    46.817866    20.212489    20.943309           90           90           90 
   18500    260.15086   -10896.684    -9724.963   -10896.684            0    2625.7567    46.645411    20.287849    21.010934            0            0            0    19883.384    4129.0912    941.68487     2806.494   -69.110713   -183.86098     692.4168    46.645411    20.287849    21.010934           90           90           90 
   19000    261.49864   -10905.424   -9727.6334   -10905.424            0    2560.7988    47.118768     20.06695    21.042829            0            0            0    19896.625    2908.2868    2787.9101    1986.1995     17.58998   -1193.8191    521.03193    47.118768     20.06695    21.042829           90           90           90 
   19500    266.61634   -10906.316   -9705.4745   -10906.316            0    2225.6961    47.394706    20.123954    20.998347            0            0            0     20027.57    1355.3914    2999.4523    2322.2445   -66.472791   -457.65893    243.83908    47.394706    20.123954    20.998347           90           90           90 
   20000    269.10732   -10942.072   -9730.0119   -10942.072            0     1819.712    46.707557    20.338555    21.101416            0            0            0    20045.591    1626.9266    1398.6159    2433.5935    29.313651   -64.540738   -209.22459    46.707557    20.338555    21.101416           90           90           90 
   20500    252.53816   -10838.496   -9701.0629   -10838.496            0    627.49584    47.310806    20.314749    20.923945            0            0            0    20110.152    1184.9153    -87.28598    784.85824   -134.74016   -234.30942    157.50256    47.310806    20.314749    20.923945           90           90           90 
   21000    265.94431   -10910.093   -9712.2791   -10910.093            0    2729.7852    46.811178     20.10268    21.099644            0            0            0    19855.401    2878.4268    3087.0798     2223.849     652.3285   -236.52929   -171.45567    46.811178     20.10268    21.099644           90           90           90 
   21500    263.28212   -10943.394   -9757.5707   -10943.394            0    2054.5125    47.115967    20.083362    21.011296            0            0            0    19881.875    1396.5127    2728.3512    2038.6738    201.92698   -255.98188   -190.36286    47.115967    20.083362    21.011296           90           90           90 
   22000    269.04956   -10885.577   -9673.7765   -10885.577            0    2385.4856    46.916421    20.155022    20.941449            0            0            0    19802.266    1384.4188     2990.576    2781.4619    92.045872    458.69525    757.36398    46.916421    20.155022    20.941449           90           90           90 
   22500    261.90914   -10879.497   -9699.8568   -10879.497            0    1549.9028    46.999837    20.129123    21.174864            0            0            0    20032.809    1951.2771    1608.9845    1089.4466    195.19022    737.59509   -180.85013    46.999837    20.129123    21.174864           90           90           90 
   23000    255.48109   -10908.747   -9758.0587   -10908.747            0    2149.7176    46.910885     20.28526    20.883132            0            0            0    19872.378    2594.3075    1335.7026    2519.1427   -288.00065    104.20845    374.17599    46.910885     20.28526    20.883132           90           90           90 
   23500    267.24609   -10910.954   -9707.2761   -10910.954            0    2263.6679    47.016871    19.994934    21.123632            0            0            0     19858.31    2876.6521    2455.3294    1459.0222    115.10322   -385.58597   -148.36418    47.016871    19.994934    21.123632           90           90           90 
   24000    268.92531   -10854.148   -9642.9078   -10854.148            0      2695.95    46.848732    20.158242    21.085444            0            0            0    19912.842    3214.6635     2344.917    2528.2693    397.91999    304.66306    230.04984    46.848732    20.158242    21.085444           90           90           90 
   24500    279.20577   -10981.762   -9724.2184   -10981.762            0    1497.3587    47.244167    20.168495    20.896341            0            0            0    19910.948    1812.7378    248.01301    2431.3254   -137.37604   -278.52189    488.47889    47.244167    20.168495    20.896341           90           90           90 
   25000    262.85029   -10861.609   -9677.7298   -10861.609            0    1822.3384    46.744426    20.142717    21.211215            0            0            0    19971.626    1474.6423    2589.7069    1402.6659   -370.40769    915.93007    -71.67688    46.744426    20.142717    21.211215           90           90           90 
   25500    262.37293   -10918.504   -9736.7751   -10918.504            0    784.92939    47.124965    20.241413    20.914673            0            0            0    19950.002     291.0827    568.37229    1495.3332    4.5124641    -724.0294   -622.08218    47.124965    20.241413    20.914673           90           90           90 
   26000    270.71037   -10878.264   -9658.9838   -10878.264            0    2618.2127    46.963596    20.015112    21.210521            0            0            0      19937.5    2516.6216     2979.431    2358.5856   -162.95022    423.17164   -31.017251    46.963596    20.015112    21.210521           90           90           90 
   26500    262.70239    -10954.92    -9771.707    -10954.92            0    1905.1854    47.045216    20.116325    21.020622            0            0            0    19893.429    1865.3969    2262.5351    1587.6241    8.2757586    940.78612     383.5727    47.045216    20.116325    21.020622           90           90           90 
   27000    263.88362   -10893.144   -9704.6107   -10893.144            0    1264.9701    47.101572    20.247707     20.90381            0            0            0     19935.94    1814.5065    147.54935    1832.8546   -162.25599   -261.21327    31.232857    47.101572    20.247707     20.90381           90           90           90 
   27500    265.15019   -10870.663   -9676.4252   -10870.663            0    1613.1877    47.291255    20.041016    21.151369            0            0            0    20046.523    666.55166    2357.9491    1815.0624   -96.558657     137.5108   -206.68956    47.291255    20.041016    21.151369           90           90           90 
   28000    262.65175    -10911.24   -9728.2558    -10911.24            0    1865.0153    47.301235    20.130475    20.869172            0            0            0    19871.549     598.6352     2679.666    2316.7446     128.4136   -568.61311   -668.55075    47.301235    20.130475    20.869172           90           90           90 
   28500    268.42469   -10918.674   -9709.6882   -10918.674            0    1617.9504    47.235831    19.994611    21.082998            0            0            0    19912.092    572.75466    2524.0919    1757.0047    125.80692    574.04375     551.5702    47.235831    19.994611    21.082998           90           90           90 
   29000    262.73779   -10924.061   -9740.6891   -10924.061            0    2221.2598    47.056601    20.098033    20.927498            0            0            0    19792.079    2749.5376    1306.5311    2607.7106    -295.3604   -701.13799   -592.56489    47.056601    20.098033    20.927498           90           90           90 
   29500    267.86537   -10902.577   -9696.1098   -10902.577            0    2110.3976    46.821887    20.172544    21.165799            0            0            0    19991.449    2438.4403    2071.9284    1820.8242    148.57728    423.85856    97.117159    46.821887    20.172544    21.165799           90           90           90 
   30000    270.11402   -10890.032   -9673.4376   -10890.032            0    1779.6512    46.879214     20.27001    20.956577            0            0            0    19913.823     2111.038    1732.0548    1495.8609   -246.72676   -104.63197    287.97228    46.879214     20.27001    20.956577           90           90           90 
   30500     260.1245   -10938.714   -9767.1123   -10938.714            0    2680.6136    46.960847    20.086373    21.037009            0            0            0    19843.645    2783.1199    3452.2992    1806.4219    -242.1174   -876.83001    310.03816    46.960847    20.086373    21.037009           90           90           90 
   31000    271.23273   -10878.071   -9656.4373   -10878.071            0    1120.9234    47.305203     20.10615    21.037299            0            0            0    20009.112    651.66984    1360.8454     1350.255   -31.394975    841.74726     195.9662    47.305203     20.10615    21.037299           90           90           90 
   31500    257.32917    -10864.71   -9705.6988    -10864.71            0    1624.2052    47.214433    20.163325    21.015032            0            0            0     20006.31     1926.474    1147.5759    1798.5657   -176.65239   -222.71519    297.36253    47.214433    20.163325    21.015032           90           90           90 
   32000    273.03171   -10888.645   -9658.9093   -10888.645            0    2749.9899    47.120628    20.087518    21.012801            0            0            0    19889.382    2783.1024    2015.0972    3451.7702    461.90238   -405.92616   -1128.1173    47.120628    20.087518    21.012801           90           90           90 
   32500    272.09586   -10883.578   -9658.0571   -10883.578            0    1734.8013    46.830197    20.239202    20.960663            0            0            0    19866.639    2355.6091    1608.8119     1239.983    236.54396     124.5349    706.52527    46.830197    20.239202    20.960663           90           90           90 
   33000     268.6099   -10881.288   -9671.4681   -10881.288            0    1614.5572    47.133197     20.15102    20.980856            0            0            0    19927.239    2361.5173    1085.2144      1396.94   -59.615668     567.7819    21.093623    47.133197     20.15102    20.980856           90           90           90 
   33500    254.38515   -10896.368   -9750.6167   -10896.368            0    1760.3126    46.490252    20.235646    21.160714            0            0            0     19907.16    4059.1715   -166.56605    1388.3323   -199.23352   -88.576552   -298.78633    46.490252    20.235646    21.160714           90           90           90 
   34000     264.3267    -10915.98   -9725.4514    -10915.98            0    1331.7651    47.196666    20.199277    20.846366            0            0            0    19873.644    344.74553    1762.3956    1888.1541    118.94243   -138.65081   -132.97485    47.196666    20.199277    20.846366           90           90           90 
   34500    254.71416   -10898.909   -9751.6755   -10898.909            0    2931.0985    47.048773    20.035054    21.034537            0            0            0    19827.674    2290.5714    4122.5249    2380.1991    102.49929   -262.05346    460.48996    47.048773    20.035054    21.034537           90           90           90 
   35000     263.8926   -10953.895   -9765.3218   -10953.895            0    2630.5281    47.064278    20.041011    20.928792            0            0            0    19740.366     2423.007    2612.3558    2856.2214    4.3204075   -1043.8488   -9.6149594    47.064278    20.041011    20.928792           90           90           90 
   35500    274.76208   -10918.146   -9680.6164   -10918.146            0     1469.607    46.960251    20.205128    20.986407            0            0            0    19912.698    1736.1337    1708.6602    964.02697   -273.51907    384.69181     423.0461    46.960251    20.205128    20.986407           90           90           90 
   36000    268.05586   -10930.303   -9722.9787   -10930.303            0    3061.3776     46.92632    20.120669    20.993015            0            0            0    19821.372    3129.2203    3300.4031    2754.5092    165.37056    277.25224   -291.42041     46.92632    20.120669    20.993015           90           90           90 
   36500    266.42031   -10877.392   -9677.4335   -10877.392            0    1817.0553    47.210127     20.17305    21.029488            0            0            0    20027.901    718.84983     2564.015     2168.301    12.545884   -124.88173    728.67093    47.210127     20.17305    21.029488           90           90           90 
   37000    262.58781   -10882.084    -9699.387   -10882.084            0    2083.9268    46.870119    20.212552    20.916358            0            0            0     19815.42    2194.5515    1173.9769     2883.252   -43.950055   -405.94668   -745.59118    46.870119    20.212552    20.916358           90           90           90 
   37500    263.88902   -10907.187   -9718.6297   -10907.187            0     2120.433    46.879351    20.119526    21.193848            0            0            0    19989.832    2255.2379    2678.4938    1427.5672    -90.69081   -102.54493    842.88483    46.879351    20.119526    21.193848           90           90           90 
   38000    272.83048   -10899.722   -9670.8921   -10899.722            0    2635.2785    46.779888    20.286451    20.881124            0            0            0    19816.144     2298.523    2443.9926    3163.3199   -343.00047    1288.7486    58.255982    46.779888    20.286451    20.881124           90           90           90 
   38500     265.6469   -10893.664   -9697.1897   -10893.664            0    1808.9613    47.043762    20.084674    21.033978            0            0            0    19874.135    2490.7017    1588.5952    1347.5872    298.45334    401.29437    152.70334    47.043762    20.084674    21.033978           90           90           90 
   39000    260.80393   -10911.603   -9736.9415   -10911.603            0    1991.2012    47.020464    20.133707     21.01203            0            0            0     19892.01    1937.4563    2734.7977    1301.3496   -174.82985    1034.5485    325.36489    47.020464    20.133707     21.01203           90           90           90 
   39500    266.61909   -10858.916   -9658.0622   -10858.916            0    1885.2243    46.857759    20.312068    21.017094            0            0            0    20003.607    2560.7051    262.94843    2832.0196    677.78553   -48.719407   -750.74921    46.857759    20.312068    21.017094           90           90           90 
   40000    268.62523    -10932.57   -9722.6808    -10932.57            0    2435.9765    46.823547    20.089961    21.116339            0            0            0    19863.786    1894.1931    3356.6014    2057.1352    279.05394   -830.25345   -256.33731    46.823547    20.089961    21.116339           90           90           90 
   40500    269.77367   -10974.453   -9759.3916   -10974.453            0    2183.7932    47.045386    20.166941    20.875458            0            0            0    19805.831     1574.147    2264.0046    2713.2281   -175.08485    238.93698    536.06508    47.045386    20.166941    20.875458           90           90           90 
   41000    262.19987    -10944.88   -9763.9306    -10944.88            0    1372.9063    47.076592    20.184837    21.002866            0            0            0    19957.623    1549.8068    1041.4862    1527.4258    146.88874     671.8342   -10.547545    47.076592    20.184837    21.002866           90           90           90 
   41500    270.78157   -10878.702   -9659.1003   -10878.702            0    1515.8182    47.032914    20.122166    21.143699            0            0            0    20010.483    891.17823    1948.6846    1707.5919   -89.493556    800.91009   -64.043931    47.032914    20.122166    21.143699           90           90           90 
   42000    268.37227   -10917.789   -9709.0391   -10917.789            0    2297.6937    47.239762     20.16211    20.866934            0            0            0     19874.78    3259.6676    1198.1964     2435.217   -1.7280853   -137.33971   -18.654279    47.239762     20.16211    20.866934           90           90           90 
   42500    266.49349   -10919.985    -9719.697   -10919.985            0    2358.4652    47.062464    20.129689    21.070771            0            0            0    19961.453    2516.0551    2894.4583    1664.8822    195.15312   -701.19779     471.0521    47.062464    20.129689    21.070771           90           90           90 
   43000    261.59643   -10876.091   -9697.8599   -10876.091            0    3050.7968    46.747717    20.068176    21.047175            0            0            0    19745.227    3023.4986    3500.4695    2628.4223    57.474472    115.66435    56.585471    46.747717    20.068176    21.047175           90           90           90 
   43500    270.99034   -10886.926   -9666.3847   -10886.926            0    2197.2741    47.082597    20.169192    20.918777            0            0            0    19864.846    1873.7416    2033.3343    2684.7463    280.32412   -679.24142    78.808762    47.082597    20.169192    20.918777           90           90           90 
   44000    257.97727   -10893.583   -9731.6523   -10893.583            0    1406.5844    47.023671    20.088981    21.127831            0            0            0    19958.567    1054.9973    1454.8311    1709.9248     222.0856    234.20941   -385.76176    47.023671    20.088981    21.127831           90           90           90 
   44500    267.15324   -10910.157   -9706.8973   -10910.157            0    1512.5078    47.224885    20.065116     20.95873            0            0            0    19859.922    1243.2015    2148.4753    1145.8465    265.41759    172.72399   -717.60196    47.224885    20.065116     20.95873           90           90           90 
   45000    264.56778    -10943.92   -9752.3057    -10943.92            0    3260.2896    47.131828    20.002246    20.978464            0            0            0    19777.288    2767.8491    4444.8998    2568.1198    327.70127   -528.09354   -339.88248    47.131828    20.002246    20.978464           90           90           90 
   45500    258.73308   -10871.284   -9705.9494   -10871.284            0    2255.9382    47.053752      20.0874    21.012064            0            0            0    19860.341    2531.1713    1567.3753     2669.268   -240.59151   -139.95468   -70.013796    47.053752      20.0874    21.012064           90           90           90 
   46000    261.95546   -10865.941   -9686.0928   -10865.941            0    1107.0484    46.805421    20.282915    21.020911            0            0            0     19956.21    2288.2312    181.01487    851.89896   -402.59438    270.24982    78.524672    46.805421    20.282915    21.020911           90           90           90 
   46500    267.58611   -10907.145   -9701.9364   -10907.145            0    2498.2953    46.645394    20.110911    20.978207            0            0            0    19679.265    2101.5964    4101.4317    1291.8577    114.69712    533.41318    608.25044    46.645394    20.110911    20.978207           90           90           90 
   47000    264.63378   -10940.776   -9748.8648   -10940.776            0    874.81523    46.927817    20.182414    21.015557            0            0            0    19904.183    1120.7099    623.33407    880.40173     286.2684   -583.19451    402.10157    46.927817    20.182414    21.015557           90           90           90 
   47500    273.47842   -10923.803   -9692.0556   -10923.803            0    1546.5027    47.429172    20.098551    20.938314            0            0            0    19959.608    849.80057    2942.6716    847.03599    128.70523   -403.65811   -520.63864    47.429172    20.098551    20.938314           90           90           90 
   48000     263.0628   -10918.108   -9733.2723   -10918.108            0    1680.5528    47.242718     20.04989    21.033035            0            0            0    19922.729    1801.4867     2158.903    1081.2689    482.53751    31.809658   -407.54957    47.242718     20.04989    21.033035           90           90           90 
   48500    271.87335    -10921.77   -9697.2517    -10921.77            0    1849.0784     46.87016    20.096139    21.044382            0            0            0    19821.899       2303.8    1569.1819    1674.2533   -233.17758   -221.50763    190.95247     46.87016    20.096139    21.044382           90           90           90 
   49000     271.2083   -10909.162   -9687.6383   -10909.162            0    2580.2729    46.822703    20.170416    20.960805            0            0            0    19796.085    2277.0655    3059.4159    2404.3374    498.60679    299.61004    966.83175    46.822703    20.170416    20.960805           90           90           90 
   49500    265.77653   -10852.242   -9655.1832   -10852.242            0    2539.1386    46.845537    20.185033    21.000684            0            0            0      19857.8    3530.8483     1567.553    2519.0144   -296.57848    174.11654    790.21992    46.845537    20.185033    21.000684           90           90           90 
   50000    270.57184   -10896.695   -9678.0385   -10896.695            0    1280.9688    47.077633    20.106892    21.025577            0            0            0    19902.493    1599.1723     1387.875    855.85901   -632.09461   -92.565557    288.94388    47.077633    20.106892    21.025577           90           90           90 
   50500    253.92574    -10871.78    -9728.097    -10871.78            0    958.06653    47.241389    20.245204    20.908191            0            0            0    19996.836     295.1339    953.24705    1625.8186    55.272874    520.45434   -135.61513    47.241389    20.245204    20.908191           90           90           90 
   51000    265.24958   -10888.737   -9694.0518   -10888.737            0    1605.5485    46.983434     20.04215    21.240113            0            0            0    20000.731    1268.2835     3503.931    44.430948    273.87104   -600.95514    1684.2776    46.983434     20.04215    21.240113           90           90           90 
   51500     263.3163   -10902.071    -9716.093   -10902.071            0    1503.2614    47.101371    20.211043     20.95749            0            0            0    19950.856      1147.02     580.9171    2781.8471   -156.12049   -520.69929    365.49723    47.101371    20.211043     20.95749           90           90           90 
   52000    262.69333    -10907.33   -9724.1586    -10907.33            0    1766.1649    46.899358    20.152298    21.017442            0            0            0    19864.212     1875.657    1087.4446    2335.3932    69.719265    212.24535    989.65122    46.899358    20.152298    21.017442           90           90           90 
   52500     270.2111   -10869.399   -9652.3676   -10869.399            0    2545.2641    47.070342    20.024195    21.057833            0            0            0    19847.971    1674.9324     3795.335     2165.525   -35.049916    1255.6649   -419.80715    47.070342    20.024195    21.057833           90           90           90 
   53000    265.84399   -10911.241   -9713.8787   -10911.241            0    1291.1329    47.027455     20.24008    20.977364            0            0            0    19967.083     1952.274    725.38941    1195.7353   -274.46333    219.75945    801.24084    47.027455     20.24008    20.977364           90           90           90 
   53500    267.79023   -10904.731   -9698.6027   -10904.731            0    1455.7426    47.288755    20.034393    21.113002            0            0            0     20002.49    1674.3453    1272.8151    1420.0675    43.867324    293.20771   -583.46578    47.288755    20.034393    21.113002           90           90           90 
   54000     270.9291    -10872.79    -9652.524    -10872.79            0    2878.9874    46.993121    20.168783    21.007271            0            0            0    19910.567    3096.0959    2199.8819    3340.9843    398.88431    512.06196    154.64405    46.993121    20.168783    21.007271           90           90           90 
   54500    265.49322   -10950.063   -9754.2804   -10950.063            0    1381.7692    47.023168    20.237895    21.022291            0            0            0    20005.862    2587.0873    368.65088    1189.5694    325.86117     254.8869    186.48819    47.023168    20.237895    21.022291           90           90           90 
   55000    269.97728   -10889.191   -9673.2126   -10889.191            0    3031.5302    47.167785    20.072794    20.951391            0            0            0    19836.551    3324.8418    2475.7155    3294.0332    506.32842    459.69808   -463.77813    47.167785    20.072794    20.951391           90           90           90 
   55500    267.21292   -10941.682   -9738.1538   -10941.682            0    1909.4206    47.010619    20.198316    21.044929            0            0            0    19982.904    2209.4107    827.58071    2691.2703    133.48283    780.38876   -4.5159411    47.010619    20.198316    21.044929           90           90           90 
   56000    267.68862   -10846.471   -9640.8003   -10846.471            0    1943.6925    46.798298    20.250111    21.006138            0            0            0    19906.902    2753.5066     984.9442    2092.6267    195.93865    351.52759   -386.33281    46.798298    20.250111    21.006138           90           90           90 
   56500    258.34991   -10902.383   -9738.7739   -10902.383            0    2203.1647     46.93074    20.164473    21.022156            0            0            0    19893.973    2676.8333    1241.8087    2690.8521   -313.15704     725.5091    474.77536     46.93074    20.164473    21.022156           90           90           90 
   57000    261.10626   -10895.155   -9719.1317   -10895.155            0    724.04066    46.953973    20.250247    21.022715            0            0            0    19989.018    18.059004    967.50049    1186.5625   -233.86787   -213.43037    463.40729    46.953973    20.250247    21.022715           90           90           90 
   57500     262.0362   -10879.692   -9699.4799   -10879.692            0    2039.7295    47.275858    20.017163    21.004097            0            0            0    19876.777    932.14917    2531.2086    2655.8307   -356.47639    656.59722   -321.70147    47.275858    20.017163    21.004097           90           90           90 
   58000    272.51353   -10930.781   -9703.3793   -10930.781            0    2228.2713    47.056532    20.133595      20.9491            0            0            0    19847.537    1346.3134    2911.6995    2426.8011    419.40814   -117.66998   -197.21065    47.056532    20.133595      20.9491           90           90           90 
   58500    273.34012   -10891.503   -9660.3782   -10891.503            0     1002.749    46.966327    20.054168     21.31089            0            0            0    20072.101    513.37104    2078.7244     416.1517    -561.4484   -96.605354    703.32371    46.966327    20.054168     21.31089           90           90           90 
   59000    267.95423   -10909.697   -9702.8303   -10909.697            0    2924.0003    47.045324    20.200295    20.797908            0            0            0    19764.865    2076.8079    3093.6834    3601.5095   -125.91136   -434.18521   -217.70043    47.045324    20.200295    20.797908           90           90           90 
   59500    268.14279   -10879.612   -9671.8954   -10879.612            0    1171.5338    46.975016    20.198674     21.11713            0            0            0    20036.632    1035.7506    932.81708    1546.0338    274.53639      -62.433    378.24628    46.975016    20.198674     21.11713           90           90           90 
   60000    260.93991   -10933.133   -9757.8588   -10933.133            0    2420.0011    46.989442    20.223719     20.99253            0            0            0    19949.228    3443.6943    1110.8386    2705.4704   -473.15799    73.466786    274.59773    46.989442    20.223719     20.99253           90           90           90 
   60500    264.67069   -10949.829   -9757.7508   -10949.829            0    2283.8847    46.894799    20.012516    21.048077            0            0            0     19753.26    2872.2457    1982.4973     1996.911    129.02055    348.90913    656.24918    46.894799    20.012516    21.048077           90           90           90 
   61000    257.71733   -10892.969   -9732.2095   -10892.969            0    2498.6547    46.861306    20.197535    20.898827            0            0            0    19780.382    2827.1752    1816.3473    2852.4417   -280.41632    352.06733    -1008.878    46.861306    20.197535    20.898827           90           90           90 
   61500     267.2663   -10864.565   -9660.7965   -10864.565            0    1536.6108    47.077345    20.075972    21.157793            0            0            0    19996.727    1554.5692     1980.946    1074.3173    365.34185    765.49462    503.84455    47.077345    20.075972    21.157793           90           90           90 
   62000    268.58548   -10897.696   -9687.9862   -10897.696            0    2666.1243    47.255018    20.100365    20.969382            0            0            0    19917.623     752.4888    4289.5889    2956.2954   -101.69797    3.4638552   -861.57528    47.255018    20.100365    20.969382           90           90           90 
   62500    261.52366   -10934.746   -9756.8425   -10934.746            0    2784.0627    47.183007    20.115194    20.923699            0            0            0    19858.585    1525.8555    4060.4837    2765.8489    154.38782   -372.95077    790.57074    47.183007    20.115194    20.923699           90           90           90 
   63000    269.16806   -10837.771   -9625.4367   -10837.771            0    2003.2854    47.020534    20.052901    21.219484            0            0            0    20007.812    2264.5085    2452.7454    1292.6021    -373.0177   -761.43586    313.86542    47.020534    20.052901    21.219484           90           90           90 
   63500    262.64087    -10929.42   -9746.4842    -10929.42            0    2789.1951    46.767685    20.247345    20.835506            0            0            0    19729.588    3486.9355    1158.0177    3722.6321   -669.89065    696.40482   -672.29714    46.767685    20.247345    20.835506           90           90           90 
   64000    275.05108   -10895.307    -9656.476   -10895.307            0    2519.4525    47.067378    20.053132    21.035171            0            0            0    19854.012    2547.3689    2472.0548    2538.9339   -254.32159   -313.41602   -202.92924    47.067378    20.053132    21.035171           90           90           90 
   64500     262.2416   -10925.012   -9743.8751   -10925.012            0    1908.7336    46.859073      20.1093    21.023929            0            0            0    19810.914    2372.2359    1298.4753    2055.4897     146.9016    218.91251    482.79149    46.859073      20.1093    21.023929           90           90           90 
   65000    260.14694   -10924.764   -9753.0613   -10924.764            0    1746.6201    47.016075    20.216073    20.987859            0            0            0    19948.548    1868.5962    1942.7397    1428.5245   -140.14704    286.81452   -191.02658    47.016075    20.216073    20.987859           90           90           90 
   65500    261.80121   -10887.266   -9708.1123   -10887.266            0    2560.6835    46.555623    20.220353    21.051242            0            0            0    19817.032    2870.7992    2288.3351    2522.9163    17.525163    654.76069   -825.54424    46.555623    20.220353    21.051242           90           90           90 
   66000    264.00118   -10825.696   -9636.6334   -10825.696            0    2805.0422    47.096493    20.171623    20.867219            0            0            0    19824.123    3373.4657    2964.0493    2077.6116    21.611582    592.68463    66.454666    47.096493    20.171623    20.867219           90           90           90 
   66500    261.56519   -10823.534   -9645.4435   -10823.534            0    1607.4235    47.053155    20.053731    21.088531            0            0            0    19898.955    1146.4832    2074.0535    1601.7338    190.24089   -521.89885   -63.695815    47.053155    20.053731    21.088531           90           90           90 
   67000    254.81956   -10886.649    -9738.941   -10886.649            0    1416.3782    47.344603    20.150061    20.918766            0            0            0    19956.433    1060.4031    1785.6414    1403.0902   -373.37318   -1746.3636    259.05992    47.344603    20.150061    20.918766           90           90           90 
   67500    276.72607   -10956.793   -9710.4176   -10956.793            0    2123.7969    46.902834    20.176569     21.11753            0            0            0    19984.327    2639.2367    2055.1434    1677.0105   -564.85323    188.45769   -257.91436    46.902834    20.176569     21.11753           90           90           90 
   68000    259.30213   -10906.704   -9738.8066   -10906.704            0     1784.087    47.433335    20.049438    20.909657            0            0            0    19885.329    1601.6596    1444.1445    2306.4569    278.39346   -116.90987    81.130792    47.433335    20.049438    20.909657           90           90           90 
   68500    271.42411   -10902.525   -9680.0293   -10902.525            0    2684.4776    47.019309    20.165215    20.885951            0            0            0    19803.108    1008.1743    3614.8388    3430.4197    285.21366    611.45321    1027.7768    47.019309    20.165215    20.885951           90           90           90 
   69000    267.79447   -10937.474   -9731.3264   -10937.474            0    1627.0815    46.939951      20.0583    21.205709            0            0            0     19965.93    1432.2589    2045.0946    1403.8911    549.99456    774.73821   -311.70015    46.939951      20.0583    21.205709           90           90           90 
   69500    263.72117   -10910.814   -9723.0131   -10910.814            0    2233.3733    47.031489    20.196544    20.831891            0            0            0    19787.662    1898.9982    2414.1863    2386.9354   -253.92248    279.01876    840.93706    47.031489    20.196544    20.831891           90           90           90 
   70000    267.58829   -10925.343   -9720.1245   -10925.343            0    1808.0485    47.121537    20.119205    21.048327            0            0            0    19954.821    1261.6086    2040.4986    2122.0382    19.172443     292.9838    41.916505    47.121537    20.119205    21.048327           90           90           90 
   70500    258.56114   -10878.184   -9713.6237   -10878.184            0    1188.6145      46.9296    20.215131    21.067068            0            0            0    19986.075     1900.062    427.76801    1238.0136   -288.78429    40.894341    588.21092      46.9296    20.215131    21.067068           90           90           90 
   71000    257.53603    -10881.77   -9721.8266    -10881.77            0    1409.7223    47.070698    20.336737    20.860934            0            0            0    19969.429    1060.9302    805.57704    2362.6597   -52.665061    597.64181   -943.60425    47.070698    20.336737    20.860934           90           90           90 
   71500    264.22334   -10888.484   -9698.4214   -10888.484            0    2582.1505     46.67786    20.056753    21.236407            0            0            0    19881.658    2661.3248    3313.5228    1771.6039     54.65518    136.69298    574.38383     46.67786    20.056753    21.236407           90           90           90 
   72000    277.39767   -10881.439   -9632.0389   -10881.439            0    1281.6578    47.169171    20.192401    20.900264            0            0            0    19906.641    1287.5246    610.40155    1947.0474   -667.12877   -180.88374    1307.4678    47.169171    20.192401    20.900264           90           90           90 
   72500    260.90548   -10946.318   -9771.1988   -10946.318            0    1606.3764    46.873052    20.079143    21.070809            0            0            0    19831.228    1230.2342    1696.7447    1892.1502    118.07153    845.98014    29.925297    46.873052    20.079143    21.070809           90           90           90 
   73000    261.43481    -10913.71   -9736.2066    -10913.71            0    1047.4444     46.77947    20.357167     20.98632            0            0            0     19985.22    2387.8905    130.84236    623.60026    27.677256   -203.80418   -316.09096     46.77947    20.357167     20.98632           90           90           90 
   73500    269.56628   -10837.009   -9622.8813   -10837.009            0    2087.2704     47.12969     20.08327    21.037226            0            0            0    19912.119    415.82526    4674.1798    1171.8062   -264.09888     305.1905   -428.81291     47.12969     20.08327    21.037226           90           90           90 
   74000    266.29577   -10867.279   -9667.8815   -10867.279            0    1557.8081    47.210743    20.069742    21.102233            0            0            0    19994.523   -164.95684     3056.396    1781.9851   -339.97485    287.96471     2.606899    47.210743    20.069742    21.102233           90           90           90 
   74500    264.84134   -10842.263   -9649.4167   -10842.263            0    2966.7303    47.253351    20.170359     20.85075            0            0            0    19873.206    2260.1156     2738.593    3901.4823   -956.38045     157.7997     291.9933    47.253351    20.170359     20.85075           90           90           90 
   75000    269.38106   -10871.542   -9658.2489   -10871.542            0    1610.5033    47.040464    20.141265    21.054718            0            0            0    19948.386    2048.8566    538.84995    2243.8033    28.402023    390.80017    330.46955    47.040464    20.141265    21.054718           90           90           90 
   75500    262.72917   -10874.576   -9691.2423   -10874.576            0    1774.1687    46.823103     20.23221    21.165706            0            0            0    20051.012    2796.1416    573.42958     1952.935   -819.20578    68.441559   -633.78114    46.823103     20.23221    21.165706           90           90           90 
   76000    261.65495   -10900.501   -9722.0059   -10900.501            0    1987.6624    47.057891    20.172453    20.939286            0            0            0      19877.1    2793.4659    1174.5531    1994.9682   -265.97301   -202.74925   -67.030652    47.057891    20.172453    20.939286           90           90           90 
   76500     258.6945   -10949.178   -9784.0167   -10949.178            0    2332.1826    47.246488    20.026028    21.073631            0            0            0    19939.016    2398.7236     2286.492    2311.3322    48.117629   -357.79217   -597.04092    47.246488    20.026028    21.073631           90           90           90 
   77000    256.67846   -10905.724   -9749.6431   -10905.724            0    1747.4274    47.086948    20.205876    20.922198            0            0            0    19906.071    2315.1289    1082.6127    1844.5405   -85.327715    161.55031   -121.78946    47.086948    20.205876    20.922198           90           90           90 
   77500    262.96877   -10873.816   -9689.4035   -10873.816            0    1127.0998    46.679859    20.262045    21.156384            0            0            0     20010.33    2133.4151    524.01823    723.86601   -104.69809    45.275088   -590.81782    46.679859    20.262045    21.156384           90           90           90 
   78000    274.71896   -10880.366   -9643.0311   -10880.366            0    1223.8434    47.306114    20.131302    20.982003            0            0            0    19981.867    1053.1552    837.09223    1781.2826    511.60771    -690.3531    104.26013    47.306114    20.131302    20.982003           90           90           90 
   78500    256.17591     -10886.8   -9732.9829     -10886.8            0    2981.7128    46.866113    20.105538    21.011759            0            0            0    19798.717    3950.5039    2413.0079    2581.6268   -808.92645    161.10973   -210.03522    46.866113    20.105538    21.011759           90           90           90 
   79000    257.73176   -10902.207    -9741.382   -10902.207            0    1998.0303    47.092459    19.985191    21.059119            0            0            0    19819.827    805.50272    3531.3618    1657.2264   -348.56195   -575.51107     302.1734    47.092459    19.985191    21.059119           90           90           90 
   79500    268.43089   -10900.717   -9691.7032   -10900.717            0    2179.2216    46.725042    20.286574    20.933289            0            0            0    19842.477    2839.4443    1270.0655     2428.155   -420.58882     468.2018    -380.6668    46.725042    20.286574    20.933289           90           90           90 
   80000    260.09447   -10881.414   -9709.9473   -10881.414            0    2064.6145    47.045239    20.114917    21.054474            0            0            0    19924.082    2104.6304     1802.306    2286.9073   -119.35666   -411.80925    1288.0479    47.045239    20.114917    21.054474           90           90           90 
   80500    263.69531   -10894.532   -9706.8468   -10894.532            0    1706.5873    46.801415    20.299909    21.065181            0            0            0     20013.28    2272.4423    1491.3128    1356.0068   -23.397337    851.06719    280.19848    46.801415    20.299909    21.065181           90           90           90 
   81000    271.81044   -10903.106   -9678.8703   -10903.106            0    2527.8084    47.254432    20.038886    20.922897            0            0            0    19812.439     1840.947    3054.6115    2687.8665      48.4462   -154.11864    86.653052    47.254432    20.038886    20.922897           90           90           90 
   81500    268.64038   -10932.557   -9722.5999   -10932.557            0    2353.5111    47.010926    20.136566    21.040817            0            0            0     19918.05    2635.9194    1911.0523    2513.5616   -73.222638    -117.6489   -482.08642    47.010926    20.136566    21.040817           90           90           90 
   82000    265.08286   -10882.565   -9688.6303   -10882.565            0    2918.1427    47.045093    20.195193    20.754075            0            0            0     19718.13    3278.0306    2149.1887     3327.209   -689.97369   -933.00134    732.45223    47.045093    20.195193    20.754075           90           90           90 
   82500    273.60805   -10854.223   -9621.8917   -10854.223            0    2457.3074     46.68943    20.157059    21.083635            0            0            0    19842.264    2902.5317    2374.8463    2094.5441   -249.89658    575.16354    1079.7926     46.68943    20.157059    21.083635           90           90           90 
   83000    268.37012   -10935.809    -9727.069   -10935.809            0    1793.3693     46.98584    20.284165    20.953833            0            0            0    19970.438    1787.4173     1815.586    1777.1047    -306.9336    128.86028    946.70336     46.98584    20.284165    20.953833           90           90           90 
   83500    265.22334   -10880.227   -9685.6601   -10880.227            0    1946.5039    47.206419    20.131603    21.016602            0            0            0    19972.935    2262.1621    1267.8844    2309.4654    113.29574   -966.56412    1170.7778    47.206419    20.131603    21.016602           90           90           90 
   84000    267.52373   -10851.892   -9646.9645   -10851.892            0    1368.2594    46.541452    20.276135     21.13629            0            0            0     19945.91    2246.6015    1044.9995    813.17714   -326.18624   -687.44428   -107.49868    46.541452    20.276135     21.13629           90           90           90 
   84500    263.64234   -10911.718   -9724.2718   -10911.718            0    998.40689    47.361464    20.207243    20.942874            0            0            0    20043.264    1510.9514    455.75368    1028.5156    253.60814   -633.08467   -214.58376    47.361464    20.207243    20.942874           90           90           90 
   85000      262.004   -10882.314   -9702.2467   -10882.314            0    1357.8163    47.079523    20.110333    21.052229            0            0            0    19931.932    1400.8697    1654.9272     1017.652   -77.906013   -154.00831   -102.59454    47.079523    20.110333    21.052229           90           90           90 
   85500    273.41609   -10864.139   -9632.6714   -10864.139            0    2282.6606     47.19924    20.222362    20.847401            0            0            0    19898.429    1507.8521    2484.5511    2855.5785    63.768987   -674.57518   -729.37536     47.19924    20.222362    20.847401           90           90           90 
   86000     267.1234   -10878.132   -9675.0074   -10878.132            0    1070.2112    46.917269    20.228374    21.211918            0            0            0    20131.384    996.68872    1513.2217    700.72316   -142.22805    202.53193    21.545626    46.917269    20.228374    21.211918           90           90           90 
   86500    265.06506   -10926.611   -9732.7568   -10926.611            0    1577.4348    47.095095    20.219728    20.977977            0            0            0    19976.278    1760.9833    1375.1023    1596.2188    219.87751   -9.9835811   -359.60468    47.095095    20.219728    20.977977           90           90           90 
   87000    271.89929   -10919.769   -9695.1339   -10919.769            0    3380.6526    46.972938    20.042377     21.00442            0            0            0    19774.597     2145.784    5663.5005    2332.6732    50.799568    -18.62196      541.455    46.972938    20.042377     21.00442           90           90           90 
   87500    264.99319   -10893.317   -9699.7871   -10893.317            0    719.02404    47.158087    20.158702    21.048553            0            0            0    20009.718    291.13042    1599.4396    266.50213   -56.732343   -425.18341   -102.54295    47.158087    20.158702    21.048553           90           90           90 
   88000    269.93033    -10866.51   -9650.7429    -10866.51            0    2155.4453    47.269936    20.135843    20.924294            0            0            0    19916.162    1162.7562    2511.6182    2791.9613    170.40497    207.61378    333.01682    47.269936    20.135843    20.924294           90           90           90 
   88500    268.62369   -10911.544   -9701.6614   -10911.544            0    1167.0372    46.962475    20.139087    21.086462            0            0            0    19943.182    1430.6726    1193.0807     877.3584    393.02214    699.12997    354.65863    46.962475    20.139087    21.086462           90           90           90 
   89000    259.46901   -10939.562   -9770.9127   -10939.562            0    1162.8062     47.11671    20.182879    20.962029            0            0            0    19933.859    1032.7374     1332.669    1123.0122     127.0073   -165.36624   -87.337591     47.11671    20.182879    20.962029           90           90           90 
   89500    261.43289    -10894.16   -9716.6649    -10894.16            0    2021.1776    46.919176    20.151816    21.001213            0            0            0    19856.785    1105.1643    2820.6877    2137.6809    203.10599   -248.00268    278.77475    46.919176    20.151816    21.001213           90           90           90 
   90000    253.86917    -10857.98   -9714.5523    -10857.98            0    2337.7031     46.86484     20.23689    20.959744            0            0            0    19878.193    1831.3595    2139.3641    3042.3857    86.632255    201.42066    671.27468     46.86484     20.23689    20.959744           90           90           90 
   90500    271.30367   -10889.116   -9667.1635   -10889.116            0    2138.9684    46.772951    20.237973    20.941576            0            0            0     19823.08    1368.0571    2348.1484    2700.6995    -441.3903    360.86781    750.89609    46.772951    20.237973    20.941576           90           90           90 
   91000    263.42837   -10930.416   -9743.9333   -10930.416            0    2128.6557    46.930152    20.044276     21.09765            0            0            0    19846.157    3728.5824    827.45918    1829.9254   -172.96451   -232.90547   -42.882782    46.930152    20.044276     21.09765           90           90           90 
   91500    262.77874    -10891.47   -9707.9138    -10891.47            0    1752.4218     47.19392    20.141662    20.926975            0            0            0    19892.429    1531.5605    2043.7594    1681.9456   -188.39016    885.67977    34.158657     47.19392    20.141662    20.926975           90           90           90 
   92000    255.49388   -10891.611   -9740.8652   -10891.611            0    3138.4101    46.834723    20.088187    21.064638            0            0            0    19818.131    3543.9624     3274.806    2596.4619    -660.7177    604.12821    304.80242    46.834723    20.088187    21.064638           90           90           90 
   92500    260.49947   -10886.848   -9713.5574   -10886.848            0    1671.4682    47.126792    20.278788    20.884547            0            0            0    19958.824    1541.8865    1511.0407    1961.4776    232.83363   -809.14109     41.21229    47.126792    20.278788    20.884547           90           90           90 
   93000    264.15732   -10899.229   -9709.4638   -10899.229            0    1516.2338    47.210194    20.121632    21.045102            0            0            0    19991.713    506.44956     1865.001    2177.2509    220.22569   -574.73729    1158.8274    47.210194    20.121632    21.045102           90           90           90 
   93500    263.74742   -10898.307   -9710.3873   -10898.307            0    3119.6681    47.064121    20.091384     20.95442            0            0            0     19814.15    1453.5802    3400.5857    4504.8385   -83.069618    1060.5549   -204.41661    47.064121    20.091384     20.95442           90           90           90 
   94000    263.29524    -10905.29   -9719.4073    -10905.29            0    1146.6013    47.332278    20.099274    20.950197            0            0            0    19930.853    807.52996    1110.5716    1521.7024    19.479851    173.04657    397.20941    47.332278    20.099274    20.950197           90           90           90 
   94500    276.55314   -10935.308   -9689.7116   -10935.308            0    2951.5925    46.630176    20.136498     21.13555            0            0            0    19845.615     4055.445    2692.7588    2106.5736    13.667518    253.83696    -37.04443    46.630176    20.136498     21.13555           90           90           90 
   95000    273.37959   -10941.968   -9710.6653   -10941.968            0    2347.3394     47.12998    20.149374    20.784389            0            0            0    19737.679    2791.2848    2024.3273     2226.406    433.34117   -582.82519    115.82084     47.12998    20.149374    20.784389           90           90           90 
   95500    268.42564   -10925.177   -9716.1866   -10925.177            0    2113.3839    46.848941    20.162111    21.129354            0            0            0     19958.23    2531.8612    2612.6364    1195.6541   -276.60761    37.584867    887.66931    46.848941    20.162111    21.129354           90           90           90 
   96000    267.55085    -10903.73   -9698.6795    -10903.73            0    1283.8235    47.194755      20.0877    21.097712            0            0            0     20001.35    1572.4801    1207.9301    1071.0604    38.955612   -6.7360046   -287.01435    47.194755      20.0877    21.097712           90           90           90 
   96500    265.01989   -10913.385   -9719.7341   -10913.385            0    1712.2002    47.095088    20.164802    20.939183            0            0            0     19885.17    1350.5279    1487.7049    2298.3679    230.05926   -316.50105    257.42355    47.095088    20.164802    20.939183           90           90           90 
   97000    258.61243   -10848.141   -9683.3498   -10848.141            0    1606.3611    47.426994     20.00777    21.114469            0            0            0    20035.697    1873.5898    1808.6834    1136.8102   -24.354928    718.46887    704.82087    47.426994     20.00777    21.114469           90           90           90 
   97500    264.51327   -10896.385   -9705.0166   -10896.385            0    1120.4838    47.346439    20.160151     21.01237            0            0            0    20056.546    909.53542    1619.8548    832.06102   -760.77207    -155.7123    288.94789    47.346439    20.160151     21.01237           90           90           90 
   98000    262.33676   -10925.649   -9744.0827   -10925.649            0     2642.446    46.944956    20.063349    21.081612            0            0            0    19856.201    2788.3552    2322.2346    2816.7482    38.796005    716.45196    162.68564    46.944956    20.063349    21.081612           90           90           90 
   98500    257.97185   -10921.172   -9759.2659   -10921.172            0    842.57329    47.257395     20.15431    20.965109            0            0            0    19968.013    -364.1304    2226.2737    665.57656    277.13788    192.26083    938.00524    47.257395     20.15431    20.965109           90           90           90 
   99000    274.24546   -10903.318   -9668.1149   -10903.318            0    1232.9541    47.409436    20.071297    21.033932            0            0            0    20015.235    11.674563    2338.2491    1348.9385   -9.1302571    -820.6169    47.499968    47.409436    20.071297    21.033932           90           90           90 
   99500    276.21858   -10878.457   -9634.3678   -10878.457            0    1334.4795    46.862582    20.224674    21.083593            0            0            0    19982.618    1740.0226    1335.7309    927.68515   -121.11835   -764.89943    241.01195    46.862582    20.224674    21.083593           90           90           90 
  100000    269.63605     -10956.1   -9741.6582     -10956.1            0    2069.3316    47.105708    20.136899    20.931703            0            0            0    19855.036    2580.1521    520.91076     3106.932     583.4246     542.0383   -30.193567    47.105708    20.136899    20.931703           90           90           90 
  100500    259.96506   -10904.919   -9734.0349   -10904.919            0    2801.9378    47.121361    20.071132    21.012737            0            0            0    19873.406     1544.586    4439.8037    2421.4236    147.82949   -572.50433    1175.5466    47.121361    20.071132    21.012737           90           90           90 
  101000    261.18383   -10866.285   -9689.9125   -10866.285            0    1044.4179     47.18354    20.153874    21.088596            0            0            0    20053.803    1345.7171     977.9244    809.61206   -228.28629    -392.4231   -23.346453     47.18354    20.153874    21.088596           90           90           90 
  101500     261.5311   -10894.074   -9716.1366   -10894.074            0    631.15303    47.356484    20.246889    20.878325            0            0            0    20018.586     297.3532   -13.412713    1609.5186    -120.3709    630.17679    496.90145    47.356484    20.246889    20.878325           90           90           90 
  102000    278.24092   -10882.993   -9629.7952   -10882.993            0    3136.6706    46.522112    20.193664    21.150527            0            0            0    19869.903    4115.7549    3183.6345    2110.6224     64.07737    945.15159   -542.13166    46.522112    20.193664    21.150527           90           90           90 
  102500    259.67739   -10918.726    -9749.138   -10918.726            0    2551.6719    47.217685    20.130315    20.880796            0            0            0    19847.341    2309.4991    2534.1903    2811.3264    20.904496   -187.90449    817.04718    47.217685    20.130315    20.880796           90           90           90 
  103000    264.40037   -10924.392   -9733.5319   -10924.392            0     1851.585    47.232262    20.066604    21.113609            0            0            0    20011.291    893.92855    2508.8156    2152.0109   -125.72103    496.31942    207.71433    47.232262    20.066604    21.113609           90           90           90 
  103500    265.69207   -10912.325   -9715.6469   -10912.325            0    2173.0468    47.023416    20.091229    21.039971            0            0            0    19877.685    2591.7602     2045.932    1881.4481    285.96978   -539.82445     738.5831    47.023416    20.091229    21.039971           90           90           90 
  104000    264.31427   -10909.216   -9718.7435   -10909.216            0    1878.7659    46.936353    20.151508    21.030104            0            0            0    19891.077    2678.6455    1050.7109    1906.9414    302.44918   -276.50903    654.23551    46.936353    20.151508    21.030104           90           90           90 
  104500    255.46371   -10907.785   -9757.1753   -10907.785            0    2000.3675     47.00774    20.101748    21.060917            0            0            0    19901.255    1634.2911    2367.8916    1998.9197    24.141022    -274.7094    77.376364     47.00774    20.101748    21.060917           90           90           90 
  105000    271.59124   -10905.872   -9682.6236   -10905.872            0    3571.8587    46.872701     20.13737    20.912981            0            0            0    19739.614    4106.3019    2907.0094    3702.2648    319.68855    86.142795     811.1109    46.872701     20.13737    20.912981           90           90           90 
  105500    263.36812   -10811.089   -9624.8776   -10811.089            0     1917.434    47.125759    20.053578    21.155562            0            0            0    19992.855    2477.9421    1666.8059     1607.554   -28.764439   -595.86012    153.06804    47.125759    20.053578    21.155562           90           90           90 
  106000    269.12174   -10922.677   -9710.5518   -10922.677            0    2051.4455    47.327428    20.037799    20.978506            0            0            0    19894.704    947.50452    3032.5991     2174.233   -2.0080069   -1301.4487    513.94602    47.327428    20.037799    20.978506           90           90           90 
  106500     265.6822   -10889.522   -9692.8882   -10889.522            0    2930.3271    47.096501    20.137384    20.946904            0            0            0    19866.051    2926.4689    3310.0662    2554.4462   -317.15212   -502.97266    115.68694    47.096501    20.137384    20.946904           90           90           90 
  107000    270.14472   -10923.564   -9706.8308   -10923.564            0     1719.256    46.796885    20.127877    21.160664            0            0            0    19931.693    1899.4672    2951.6344    306.66649   -25.234668    299.94668    31.150987    46.796885    20.127877    21.160664           90           90           90 
  107500    274.61729   -10892.573   -9655.6958   -10892.573            0    1395.3698    47.063451    20.319179    20.915385            0            0            0    20001.187    940.24459    1600.1532    1645.7117   -520.52718    259.69485    290.08803    47.063451    20.319179    20.915385           90           90           90 
  108000    271.44092    -10919.19   -9696.6195    -10919.19            0    2441.9372     46.81927    20.070905    21.077848            0            0            0    19806.961    3457.9746    1745.5368    2122.3001   -579.30966   -247.27091   -456.71596     46.81927    20.070905    21.077848           90           90           90 
  108500    276.84905   -10946.863   -9699.9339   -10946.863            0    1322.9441     46.77961    20.215317    21.021388            0            0            0    19879.183    2079.8077    1237.5473    651.47714   -300.43565    1219.5416    95.268193     46.77961    20.215317    21.021388           90           90           90 
  109000    256.74799   -10922.047   -9765.6528   -10922.047            0    1925.0519     47.17017    20.049256    21.001193            0            0            0    19861.391    600.86118     3600.313    1573.9813   -165.29223   -353.40797    1200.3727     47.17017    20.049256    21.001193           90           90           90 
  109500     266.2675   -10963.921   -9764.6515   -10963.921            0    1522.9693    47.090105    19.940856     21.18862            0            0            0    19896.474    1170.3475    2580.9653    817.59508   -544.22937    702.49692   -376.26673    47.090105    19.940856     21.18862           90           90           90 
  110000    264.64211   -10892.573   -9700.6236   -10892.573            0    1612.9057    47.021868    20.221463    20.903382            0            0            0        19876    1135.4826    1778.3118    1924.9228   -22.162752    651.58748    67.032759    47.021868    20.221463    20.903382           90           90           90 
  110500    267.68298   -10942.516   -9736.8707   -10942.516            0    2749.9492    46.800302    20.058345    21.077215            0            0            0    19785.953    2626.4713    3686.4675    1936.9089    365.43959   -149.59454   -888.12692    46.800302    20.058345    21.077215           90           90           90 
  111000    263.41202   -10899.233   -9712.8242   -10899.233            0    1537.4872     47.06846    20.098025    21.027191            0            0            0    19891.368    1885.8678    1570.6433    1155.9506    8.8447973   -163.47549   -162.21517     47.06846    20.098025    21.027191           90           90           90 
  111500    265.35746   -10901.788   -9706.6174   -10901.788            0    2361.6951    47.140324    20.142815    20.963347            0            0            0    19905.512    2580.2243     2181.551    2323.3099   -85.333371   -164.58608   -1051.4065    47.140324    20.142815    20.963347           90           90           90 
  112000    263.14757   -10928.836   -9743.6184   -10928.836            0    1116.5168    46.820029    20.259464    21.199021            0            0            0    20108.304    2268.9613    241.22103    839.36803   -378.28771   -567.28621    114.76336    46.820029    20.259464    21.199021           90           90           90 
  112500    270.31841   -10927.312   -9709.7968   -10927.312            0    1896.2471    46.836783    20.210433    20.982555            0            0            0    19861.912     1864.121     2391.244    1433.3763    266.93739    22.468844   -754.71322    46.836783    20.210433    20.982555           90           90           90 
  113000    262.80326   -10878.259   -9694.5924   -10878.259            0    2445.6219    46.935974    20.172338     20.98111            0            0            0    19865.089    1758.5842    3106.9922    2471.2894   -512.56619   -273.15689    1462.1442    46.935974    20.172338     20.98111           90           90           90 
  113500    258.44227   -10864.695     -9700.67   -10864.695            0     2471.579    47.132806    20.007863    21.198382            0            0            0    19990.641    2864.4843    2362.3459    2187.9069   -461.20356   -973.84817     28.30718    47.132806    20.007863    21.198382           90           90           90 
  114000    262.72716   -10848.253   -9664.9287   -10848.253            0    1968.5609    47.292888    20.204226    20.829403            0            0            0    19902.832    1171.9651    2278.0063    2455.7112   -556.76323    14.652323    415.20588    47.292888    20.204226    20.829403           90           90           90 
  114500    270.17202   -10912.332   -9695.4765   -10912.332            0    874.11741    46.878217    20.126423    21.200828            0            0            0    20002.787    966.97353    573.78501    1081.5937    370.37802    413.75186    156.36749    46.878217    20.126423    21.200828           90           90           90 
  115000    268.88051   -10850.965   -9639.9264   -10850.965            0    2031.4924    46.780844    20.190777     20.93886            0            0            0    19777.624    2573.1844    1226.8423    2294.4506    282.99629    1119.8162    869.81964    46.780844    20.190777     20.93886           90           90           90 
  115500    266.59649   -10918.766   -9718.0139   -10918.766            0    904.60548    47.002139    20.153511    21.081124            0            0            0    19969.267    228.72627    1199.4595    1285.6306    48.151868    381.98962    609.38018    47.002139    20.153511    21.081124           90           90           90 
  116000    261.46166   -10932.506   -9754.8816   -10932.506            0    2320.6696    46.906025    20.106584    21.004799            0            0            0    19810.045    1456.6359    3151.9687    2353.4042   -3.2285976    303.11222    88.207162    46.906025    20.106584    21.004799           90           90           90 
  116500    266.91752   -10886.216   -9684.0181   -10886.216            0    3203.4995    47.291803    20.043022    20.893464            0            0            0    19804.302     2775.368    2500.0959    4335.0347    127.26095    123.37715   -197.73901    47.291803    20.043022    20.893464           90           90           90 
  117000    256.93781   -10871.334    -9714.085   -10871.334            0    1440.0377    46.991147      20.2177      21.0401            0            0            0    19989.208    903.10888     1655.028    1761.9761    755.26185   -819.72561    364.44444    46.991147      20.2177      21.0401           90           90           90 
  117500    261.89098   -10915.657   -9736.0989   -10915.657            0    1868.0245     47.15592    20.123686     20.96532            0            0            0     19895.06    2343.9681    1671.8857    1588.2198    456.87949   -356.33625   -295.97314     47.15592    20.123686     20.96532           90           90           90 
  118000    258.62417   -10917.707   -9752.8631   -10917.707            0    1845.3002    46.969552    20.007994    21.108675            0            0            0    19837.226    919.67069     2869.845     1746.385   -318.84514    271.25974   -554.47193    46.969552    20.007994    21.108675           90           90           90 
  118500    268.21263   -10933.338   -9725.3072   -10933.338            0    1394.3312    47.111125    20.208593    20.887563            0            0            0    19885.995    1067.3318    1324.9621    1790.6998   -348.18605    109.19234   -469.99168    47.111125    20.208593    20.887563           90           90           90 
  119000    259.71477   -10843.746   -9673.9894   -10843.746            0    3338.5543    46.842926    20.157909    21.058515            0            0            0    19884.618    3411.9926    2852.0042    3751.6661    179.67711   -610.22029   -516.61202    46.842926    20.157909    21.058515           90           90           90 
  119500    264.66659   -10886.506   -9694.4461   -10886.506            0    2142.8491    46.953816    20.219147    21.012117            0            0            0    19948.192    1528.6722    3339.6383    1560.2368   -172.82106    129.66648    979.06193    46.953816    20.219147    21.012117           90           90           90 
  120000     273.5141   -10920.267   -9688.3588   -10920.267            0    1790.5528    46.899167    20.225839    20.990301            0            0            0    19910.875    2717.3745    1058.5373    1595.7467   -459.94238     61.04026   -495.49525    46.899167    20.225839    20.990301           90           90           90 
  120500    269.21439   -10865.566   -9653.0234   -10865.566            0    1557.9495      47.1288    20.172212    21.090426            0            0            0    20050.503    865.09037    1845.7738    1962.9843   -44.194996   -603.88419    450.42476      47.1288    20.172212    21.090426           90           90           90 
  121000    264.79683   -10911.176     -9718.53   -10911.176            0    2518.2521    47.126037    20.019742     21.03172            0            0            0    19842.399    2264.4077    2616.4083    2673.9404   -175.84722    -53.27351   -509.92985    47.126037    20.019742     21.03172           90           90           90 
  121500    261.47122   -10931.486   -9753.8185   -10931.486            0    1881.6454     46.89045    20.262101    20.962608            0            0            0    19916.554    2288.6084    1260.6179    2095.7099   -323.46503   -433.16407   -486.61316     46.89045    20.262101    20.962608           90           90           90 
  122000    276.18084   -10921.938   -9678.0185   -10921.938            0    2152.8341    47.009525    19.968215    21.055418            0            0            0    19764.642    2658.7043    2149.9151    1649.8828    103.16848    1370.4513    294.28866    47.009525    19.968215    21.055418           90           90           90 
  122500    263.01213   -10888.734   -9704.1266   -10888.734            0    1165.0404    47.126789    20.240649    20.836115            0            0            0    19875.087    20.916972    1923.7078    1550.4965   -567.23418    612.30722   -593.56088    47.126789    20.240649    20.836115           90           90           90 
  123000    255.15141   -10911.526   -9762.3228   -10911.526            0    2248.3453    47.011667    20.108799    21.080668            0            0            0     19928.57    3576.1835    494.53249    2674.3199   -470.41729   -238.82125    528.88056    47.011667    20.108799    21.080668           90           90           90 
  123500    265.45578   -10910.407   -9714.7929   -10910.407            0     2646.665    46.750712    20.151461    21.076649            0            0            0    19856.209    3042.8804     2378.365    2518.7495   -565.04093   -300.36016    222.44631    46.750712    20.151461    21.076649           90           90           90 
  124000    265.31643   -10879.372   -9684.3857   -10879.372            0    1996.8577    47.425365    20.194806    20.852385            0            0            0     19971.29     1632.029    2266.7302    2091.8139   -32.722536    304.19596   -626.73988    47.425365    20.194806    20.852385           90           90           90 
  124500    267.88465   -10881.732   -9675.1785   -10881.732            0    3050.3953    46.737198    20.069609    21.148765            0            0            0    19837.485    2974.3225    4337.1046    1839.7587   -34.438963   -681.01471   -314.76186    46.737198    20.069609    21.148765           90           90           90 
  125000    270.88642   -10846.752   -9626.6788   -10846.752            0    1665.0981    47.251504    20.151819     21.02285            0            0            0    20018.036    1160.1006    2012.3322    1822.8614    200.47041   -532.38307    78.988099    47.251504    20.151819     21.02285           90           90           90 
  125500    259.81536   -10892.245   -9722.0357   -10892.245            0    1689.4682    47.025338     20.11175     21.05764            0            0            0    19915.512    2533.7389    1135.9296     1398.736    490.84822    538.34533    220.68869    47.025338     20.11175     21.05764           90           90           90 
  126000    270.59898   -10874.772   -9655.9932   -10874.772            0    2291.6633    46.958498    20.203328    20.978986            0            0            0     19903.14    3082.9905    1367.9815    2424.0179   -226.93212   -59.110408   -119.95453    46.958498    20.203328    20.978986           90           90           90 
  126500    261.36365   -10901.952   -9724.7689   -10901.952            0    3076.7121    46.859763    20.167276    20.984264            0            0            0    19830.838    2604.0479    3312.0988    3313.9896   -471.73253    -404.7361   -316.06855    46.859763    20.167276    20.984264           90           90           90 
  127000    260.97576   -10875.017   -9699.5811   -10875.017            0    2129.5352    47.048696    20.076798    21.134451            0            0            0    19963.331     2591.292    2193.5462    1603.7676   -24.146465    125.84039    863.16668    47.048696    20.076798    21.134451           90           90           90 
  127500    264.63337   -10909.686   -9717.7759   -10909.686            0     2247.666    47.421793    20.099987    20.841687            0            0            0    19865.825     1157.821    2612.6884    2972.4884   -324.33531   -1251.1225     203.7037    47.421793    20.099987    20.841687           90           90           90 
  128000    257.12693   -10870.872   -9712.7711   -10870.872            0    2233.6476    47.084239    20.099843    21.138421            0            0            0    20005.102     1813.174    2924.5542    1963.2147    35.598518    1026.3916    990.51365    47.084239    20.099843    21.138421           90           90           90 
  128500    273.83704   -10955.219   -9721.8562   -10955.219            0    2428.4679    47.144265    20.156801    20.983329            0            0            0    19939.987     2749.635    1822.6326     2713.136   -188.15283   -271.44251   -572.01276    47.144265    20.156801    20.983329           90           90           90 
  129000    264.37763   -10897.079   -9706.3216   -10897.079            0    1605.9546    47.020861    20.217707    21.063439            0            0            0    20024.042    2179.5073    1168.0936     1470.263    485.33325   -615.85424   -242.30284    47.020861    20.217707    21.063439           90           90           90 
  129500    268.07424     -10914.7   -9707.2928     -10914.7            0    1840.2244    46.796324    20.097157    21.191375            0            0            0    19929.917    1801.3959    2413.5323    1305.7451   -460.03692   -757.33781    532.47755    46.796324    20.097157    21.191375           90           90           90 
  130000    261.21085   -10886.113   -9709.6183   -10886.113            0    2879.8402    47.152296    20.161248    20.758774            0            0            0    19734.311    3198.9874    1457.2827    3983.2506   -191.36357   -256.79509    16.820665    47.152296    20.161248    20.758774           90           90           90 
  130500    268.59284   -10886.178   -9676.4351   -10886.178            0    1366.5302    47.129877    20.081553    21.096393            0            0            0    19966.493    2509.5731    1014.9501    575.06731   -492.93894   -350.79148    1139.3574    47.129877    20.081553    21.096393           90           90           90 
  131000    256.35552   -10963.333   -9808.7067   -10963.333            0    1064.3659     46.92072    20.272371     21.00721            0            0            0    19981.937    721.29633    2055.4831    416.31838    53.811553    37.605446    268.73319     46.92072    20.272371     21.00721           90           90           90 
  131500    254.94842   -10924.457   -9776.1678   -10924.457            0    1333.7155    47.025395    20.159048    21.007801            0            0            0    19915.127    2477.0858    550.98466    973.07595   -419.75839   -115.68113    -938.6251    47.025395    20.159048    21.007801           90           90           90 
  132000    266.08527   -10946.484    -9748.035   -10946.484            0    2020.1591    46.836494    20.199156    21.054286            0            0            0    19918.568    2851.5875    1553.7776    1655.1122   -118.79432    191.65628    190.30566    46.836494    20.199156    21.054286           90           90           90 
  132500     267.7235   -10881.891   -9676.0633   -10881.891            0    2387.0426    47.266697    20.028734    20.966408            0            0            0    19848.732    2916.8439    1895.1458     2349.138   -490.67228   -510.10665    464.82289    47.266697    20.028734    20.966408           90           90           90 
  133000    261.77949   -10891.376     -9712.32   -10891.376            0    1618.2496    47.227401    20.051124    21.137473            0            0            0    20016.393    1495.9006     1947.568    1411.2803    295.27058   -211.65287    97.509212    47.227401    20.051124    21.137473           90           90           90 
  133500    254.95962   -10919.277   -9770.9384   -10919.277            0    2342.4943    46.894596    20.097534    20.951545            0            0            0    19746.113    1462.1305    3914.1799    1651.1725     155.1296     517.1986   -289.41547    46.894596    20.097534    20.951545           90           90           90 
  134000    265.83667   -10916.651   -9719.3213   -10916.651            0    2242.8372    47.097897      20.2044    20.968659            0            0            0    19953.457    1494.5296    2713.0841    2520.8979   -38.422212    728.07778    405.65406    47.097897      20.2044    20.968659           90           90           90 
  134500    269.72347   -10855.392   -9640.5566   -10855.392            0    1428.4446    46.943809    20.203506    21.074501            0            0            0    19987.678    2571.4034    1282.9758    430.95447   -67.555643   -299.70271   -58.712708    46.943809    20.203506    21.074501           90           90           90 
  135000    251.62214   -10906.468   -9773.1606   -10906.468            0    2715.8125    46.774586    20.175719    20.996286            0            0            0    19814.424    4080.4945    1888.9106    2178.0325    142.57243   -89.528827    1215.4498    46.774586    20.175719    20.996286           90           90           90 
  135500    254.74734   -10885.564   -9738.1809   -10885.564            0    1129.8012    47.292146    20.162128     21.01584            0            0            0     20038.82    1419.5997    878.58942    1091.2144   -180.88399    148.07898   -698.20499    47.292146    20.162128     21.01584           90           90           90 
  136000    268.70486   -10921.583   -9711.3356   -10921.583            0    2578.1365    47.220153    20.010837    21.105015            0            0            0    19942.441    1490.7587    4413.5129     1830.138    1.0807638    675.16058   -217.91407    47.220153    20.010837    21.105015           90           90           90 
  136500    266.67983    -10909.89   -9708.7634    -10909.89            0    1915.6689    47.151957    20.125496    20.959916            0            0            0    19890.049    541.26639    2159.8653     3045.875   -326.25104    25.885022   -768.43285    47.151957    20.125496    20.959916           90           90           90 
  137000    269.35078   -10903.452   -9690.2949   -10903.452            0    2342.6573    46.639104    20.166176    21.167014            0            0            0    19908.262    2787.3709     1745.583    2495.0181   -251.10719   -568.85566   -289.28795    46.639104    20.166176    21.167014           90           90           90 
  137500    273.60345   -10866.577   -9634.2664   -10866.577            0    2528.1375    47.168087    20.180134    20.830454            0            0            0     19827.64    1558.9629    3380.5697    2644.8797   -203.84852   -484.83543   -28.982111    47.168087    20.180134    20.830454           90           90           90 
  138000    266.21153     -10902.3   -9703.2821     -10902.3            0    2497.7568     47.05914    20.030333    21.156639            0            0            0    19942.464    2340.3868    2839.5766    2313.3068    -27.46095   -578.84196    482.57211     47.05914    20.030333    21.156639           90           90           90 
  138500     253.0685   -10858.731   -9718.9095   -10858.731            0    1538.6338    47.254642    20.288633    20.815066            0            0            0    19956.072    1000.0957    679.13313    2936.6725    -275.2077   -629.28108   -537.43254    47.254642    20.288633    20.815066           90           90           90 
  139000    258.03733   -10955.434   -9793.2328   -10955.434            0    1370.1541    46.806403    20.150647    21.193701            0            0            0    19989.461    1551.6887    1865.3883     693.3853   -128.33799   -137.62619    55.732873    46.806403    20.150647    21.193701           90           90           90 
  139500    263.29993   -10886.185   -9700.2815   -10886.185            0    2167.9456    47.138306    20.060711    20.977722            0            0            0     19837.12    2403.0352    2302.2178    1798.5838    7.4735495    36.253938    806.28215    47.138306    20.060711    20.977722           90           90           90 
  140000    266.39427   -10892.661   -9692.8202   -10892.661            0    1320.1475    47.242518     20.05595    21.019241            0            0            0    19915.596    1221.5329    1559.4269    1179.4826    104.59009    945.56618   -1005.8248    47.242518     20.05595    21.019241           90           90           90 
  140500    272.54331   -10883.445   -9655.9093   -10883.445            0    2429.3624    46.765824    20.105035    21.108972            0            0            0    19847.258    3267.4455    1899.4168     2121.225    698.97369   -449.61945   -502.31967    46.765824    20.105035    21.108972           90           90           90 
  141000    264.26239   -10919.951   -9729.7123   -10919.951            0    2534.9803    47.162191    20.219103    20.836882            0            0            0    19869.575    2473.4022    2719.2305    2412.3081    257.19603    285.47508    930.92852    47.162191    20.219103    20.836882           90           90           90 
  141500    269.44424   -10934.206   -9720.6284   -10934.206            0    1184.9176    46.915653    20.043618    21.296474            0            0            0    20026.341    2416.6382    680.08045     458.0341    187.44055   -92.516036    888.92445    46.915653    20.043618    21.296474           90           90           90 
  142000    268.50764   -10905.415   -9696.0556   -10905.415            0    2650.1587    46.963073    20.192076    20.930071            0            0            0    19847.607    3583.1134    2136.1699    2231.1928   -231.27745   -296.46398   -61.521953    46.963073    20.192076    20.930071           90           90           90 
  142500    267.07821   -10875.176   -9672.2543   -10875.176            0    1947.1987    47.150785    20.196554    20.983808            0            0            0    19982.532     1025.182    2327.5178    2488.8964   -574.30217    112.17478   -188.96363    47.150785    20.196554    20.983808           90           90           90 
  143000     268.6018   -10941.005   -9731.2212   -10941.005            0    524.46674    46.918708    20.016621    21.238953            0            0            0    19946.648    1911.8244     75.89054   -414.31476   -409.43529    451.32129    -783.0951    46.918708    20.016621    21.238953           90           90           90 
  143500    264.75746   -10894.234   -9701.7654   -10894.234            0     2094.555    46.935456    20.202395    20.906114            0            0            0    19823.357    1835.8591    1681.4098    2766.3963     237.2989    446.30563    580.05486    46.935456    20.202395    20.906114           90           90           90 
  144000    270.25681   -10929.026    -9711.788   -10929.026            0    2488.5327    47.004507     20.15558    21.025939            0            0            0     19920.04    2460.5054    2614.5755    2390.5171   -608.88411   -35.085791    610.52569    47.004507     20.15558    21.025939           90           90           90 
  144500    259.28258   -10873.787   -9705.9776   -10873.787            0    2632.2907    47.221249    20.075487    21.021907            0            0            0    19928.549    2696.8288    2079.1317    3120.9117    98.000077    126.58039    119.57909    47.221249    20.075487    21.021907           90           90           90 
  145000    263.08767   -10930.368   -9745.4205   -10930.368            0    1410.7366    47.206772    20.206704    20.912666            0            0            0    19948.452    681.99515    1445.8739    2104.3407    49.960998    528.93589    557.19605    47.206772    20.206704    20.912666           90           90           90 
  145500    265.67056   -10928.906   -9732.3245   -10928.906            0     1132.355    46.868604    20.046155    21.301721            0            0            0    20013.719    1262.6743    2768.1437    -633.7531    61.768284    309.15761    26.584153    46.868604    20.046155    21.301721           90           90           90 
  146000    260.24525   -10915.149   -9743.0037   -10915.149            0    2305.7919     47.06963    20.235347    20.870107            0            0            0    19878.158    1390.2467    2531.4112     2995.718   -106.86662    159.04325   -304.97181     47.06963    20.235347    20.870107           90           90           90 
  146500    256.40786   -10865.861   -9710.9991   -10865.861            0    1031.6192    47.263689    20.200413     21.14543            0            0            0    20188.516    681.65672    1543.4241    869.77673    448.08743    364.13114   -958.77829    47.263689    20.200413     21.14543           90           90           90 
  147000    273.24754   -10926.805   -9696.0969   -10926.805            0    2280.2574    47.112112    20.077625    21.050259            0            0            0    19911.426    1586.0555    3418.2178    1836.4989    251.14548    462.30713   -55.369545    47.112112    20.077625    21.050259           90           90           90 
  147500    265.29311   -10849.016    -9654.135   -10849.016            0    2579.7651    47.145525    20.132685    20.828982            0            0            0    19770.161    1092.1444    3123.5495    3523.6014   -935.20677   -171.10402   -594.26948    47.145525    20.132685    20.828982           90           90           90 
  148000    262.38487   -10916.888   -9735.1055   -10916.888            0    2607.2977    46.560549    20.121069    21.206695            0            0            0     19867.45    3002.8539     3106.947    1712.0923    42.495621   -145.71622   -25.579767    46.560549    20.121069    21.206695           90           90           90 
  148500     268.3332    -10880.04    -9671.466    -10880.04            0    1338.2302    47.077088    20.181318    21.103765            0            0            0    20050.216     1639.368    1082.5683    1292.7543   -297.64748   -1503.2548    123.53207    47.077088    20.181318    21.103765           90           90           90 
  149000    278.90023   -10900.205    -9644.037   -10900.205            0    2164.3901    47.055511    20.241969    20.875562            0            0            0    19883.893    1424.0321    2103.3926    2965.7455    -261.9566   -512.69348   -45.898309    47.055511    20.241969    20.875562           90           90           90 
  149500    269.90078   -10906.245   -9690.6105   -10906.245            0    1581.2827    46.870632    20.031255    21.199558            0            0            0    19903.789     2345.048    2051.0874    347.71263   -241.73564   -705.43309    62.962973    46.870632    20.031255    21.199558           90           90           90 
  150000    257.79684    -10914.93   -9753.8119    -10914.93            0    2001.1149    47.248615    20.162413    20.845132            0            0            0    19858.033    3238.1311    1050.0447    1715.1688    199.13442   -1184.7407   -182.46447    47.248615    20.162413    20.845132           90           90           90 
  150500    271.57614   -10923.784   -9700.6044   -10923.784            0    2276.2079    46.792236    20.209033    21.108937            0            0            0    19961.157    3423.3281    1626.0799    1779.2158    56.417165    190.64954    287.90215    46.792236    20.209033    21.108937           90           90           90 
  151000    264.72806   -10946.035   -9753.6992   -10946.035            0    2205.8541    46.995027    20.191225    20.993232            0            0            0    19920.208    2280.8737    1653.0664    2683.6221    119.50177   -1051.8533    548.12485    46.995027    20.191225    20.993232           90           90           90 
  151500    259.57018   -10876.997    -9707.892   -10876.997            0    1975.7952    47.166721    20.133668    21.044875            0            0            0    19985.036    2193.7841    1059.2005    2674.4012   -403.77837    437.77722   -66.837036    47.166721    20.133668    21.044875           90           90           90 
  152000    256.36439   -10901.233    -9746.567   -10901.233            0    1470.3102     47.25785    20.016786    21.067186            0            0            0     19928.51   -57.573934    2584.8706    1883.6339   -560.20717    351.86074    570.54525     47.25785    20.016786    21.067186           90           90           90 
  152500    258.61159   -10898.406   -9733.6185   -10898.406            0    2105.6761    47.272145    20.222657    20.823065            0            0            0    19906.192    1354.0701    1945.9822    3016.9759   -708.17528     324.4168   -239.60965    47.272145    20.222657    20.823065           90           90           90 
  153000    262.26955    -10903.33   -9722.0668    -10903.33            0    553.88423    46.750261     20.07964    21.258595            0            0            0    19956.047     519.5678    1075.6575    66.427378   -155.98057    -134.8005   -634.31858    46.750261     20.07964    21.258595           90           90           90 
  153500    256.97628   -10902.516   -9745.0937   -10902.516            0    2466.0227     46.96225    20.220046    20.947756            0            0            0    19891.547    2613.4082    1852.1122    2932.5477   -431.45883     201.0006    579.66681     46.96225    20.220046    20.947756           90           90           90 
  154000    272.76677   -10891.229   -9662.6868   -10891.229            0    1721.2228    46.785672    20.263813    21.076855            0            0            0    19982.041    2927.0712     514.7918    1721.8054    159.84259    374.36385   -192.32219    46.785672    20.263813    21.076855           90           90           90 
  154500    257.35549   -10932.892   -9773.7617   -10932.892            0    1266.0911    47.143899    20.079081    21.037903            0            0            0    19914.608    1566.4938    1200.1995    1031.5801   -59.599759   -6.4319492   -104.08499    47.143899    20.079081    21.037903           90           90           90 
  155000    259.93029   -10834.735   -9664.0079   -10834.735            0    1747.8434    47.171725    20.090536    21.063514            0            0            0    19962.003    1594.9562    2050.1202    1598.4538   -95.574606    205.21412      253.363    47.171725    20.090536    21.063514           90           90           90 
  155500    262.56782   -10873.698   -9691.0919   -10873.698            0    2307.9478    47.228013    20.102279    20.913864            0            0            0    19855.427    1387.2045    3014.5577    2522.0811   -34.741882     163.1948   -210.18886    47.228013    20.102279    20.913864           90           90           90 
  156000    258.38502   -10948.364   -9784.5971   -10948.364            0    2083.5603    47.027891    20.094092    21.020176            0            0            0    19863.705    2316.5291    1674.7705    2259.3812   -90.247827    464.41469    759.37621    47.027891    20.094092    21.020176           90           90           90 
  156500    257.44054   -10912.691   -9753.1777   -10912.691            0    2575.7004     46.66838    20.239101    20.974679            0            0            0    19811.131    2612.2576     3076.131    2038.7125   -128.20737    612.55483     216.1869     46.66838    20.239101    20.974679           90           90           90 
  157000    253.31168   -10914.712   -9773.7953   -10914.712            0    1858.3341    47.017333    20.216244    21.068204            0            0            0     20025.62    2934.4821    149.70192    2490.8182    391.85202    689.52871    346.17534    47.017333    20.216244    21.068204           90           90           90 
  157500    260.61846    -10908.22   -9734.3939    -10908.22            0    2986.5052    47.121831    20.139943    20.933569            0            0            0    19866.606    3467.7945     2418.835     3072.886    223.61121    223.85973    210.36358    47.121831    20.139943    20.933569           90           90           90 
  158000    259.39439   -10907.393   -9739.0794   -10907.393            0     1805.938     47.09365    20.073495    21.058568            0            0            0    19907.383    1142.6888    2397.4382    1877.6871   -534.20258    613.96539     317.4011     47.09365    20.073495    21.058568           90           90           90 
  158500    258.84516   -10858.953   -9693.1132   -10858.953            0    2144.6481    47.059856    20.035636    21.073298            0            0            0    19869.467    3166.8142     1218.745     2048.385   -141.82617    3.3694489   -769.27062    47.059856    20.035636    21.073298           90           90           90 
  159000    269.56552   -10885.881   -9671.7568   -10885.881            0    2787.7742    47.046041    20.186663    20.968431            0            0            0    19913.773    1939.5713     3271.599    3152.1522   -144.36082   -149.06905    210.33109    47.046041    20.186663    20.968431           90           90           90 
  159500    261.57199   -10885.326   -9707.2045   -10885.326            0    2308.0885    46.936857     20.14239    21.131702            0            0            0    19978.344     3085.002    2274.6605     1564.603     274.7076   -941.03516     134.7331    46.936857     20.14239    21.131702           90           90           90 
  160000    267.79377   -10898.676   -9692.5318   -10898.676            0     2713.485    47.181519    20.079861    20.870008            0            0            0    19772.211    2790.7345    2036.0153     3313.705   -22.017149   -467.95162    252.54354    47.181519    20.079861    20.870008           90           90           90 
  160500    276.22889   -10881.245   -9637.1086   -10881.245            0    1639.9769    46.972298    20.011735     21.23805            0            0            0    19963.708    2436.8164    1553.8528     929.2615   -155.18261   -52.481444     375.2552    46.972298    20.011735     21.23805           90           90           90 
  161000    256.14576   -10924.471    -9770.789   -10924.471            0    3399.2544    46.859916     20.14258    20.988845            0            0            0    19810.943    5146.5944    2149.4691    2901.6997    -721.0963    176.06201    1004.7648    46.859916     20.14258    20.988845           90           90           90 
  161500    271.21064   -10895.587   -9674.0534   -10895.587            0    866.82918    47.108916    20.192418    20.978061            0            0            0    19955.232    1748.8656    377.16339    474.45852      -593.73   -588.93413   -148.34485    47.108916    20.192418    20.978061           90           90           90 
  162000    259.24743   -10946.503   -9778.8511   -10946.503            0     2856.825    47.004548    20.010434     21.11922            0            0            0    19864.346    2082.1806    3421.8297    3066.4648    -105.0556   -276.28722   -526.01019    47.004548    20.010434     21.11922           90           90           90 
  162500    263.55206   -10925.948   -9738.9083   -10925.948            0    1356.3569     46.90319    20.343572    20.892523            0            0            0    19935.195    795.96245    947.61522     2325.493   -180.57613   -321.82291    -908.2242     46.90319    20.343572    20.892523           90           90           90 
  163000    261.85146   -10921.025   -9741.6448   -10921.025            0    503.72939    46.904466    20.142619    21.288986            0            0            0    20113.383    192.56389    1663.6092   -344.98492   -143.22004   -732.29655    164.73843    46.904466    20.142619    21.288986           90           90           90 
  163500    264.92183   -10928.871   -9735.6615   -10928.871            0     3725.829     47.12689    20.069085    20.895204            0            0            0    19762.549    3309.6182    4791.7781    3076.0909    293.20285    -281.8834    52.439611     47.12689    20.069085    20.895204           90           90           90 
  164000    269.16205   -10915.693    -9703.386   -10915.693            0    2868.4794    46.951196    20.094224    21.006608            0            0            0    19818.639    3593.3876     2175.964    2836.0868   -250.16703   -542.03272     842.3104    46.951196    20.094224    21.006608           90           90           90 
  164500    274.30983   -10850.884   -9615.3919   -10850.884            0    2633.8228    46.945444    20.027603    21.104614            0            0            0    19842.657    2399.2003    3408.0596    2094.2086   -593.20244   -876.15367   -250.55224    46.945444    20.027603    21.104614           90           90           90 
  165000    261.60975   -10856.451   -9678.1596   -10856.451            0     693.5902    47.030293    20.334242    20.905523            0            0            0    19992.482     1340.195   -658.87643     1399.452   -540.72724    526.41448    643.11621    47.030293    20.334242    20.905523           90           90           90 
  165500     263.3299   -10904.233   -9718.1943   -10904.233            0    2622.0799    46.918641    20.162395    21.014809            0            0            0    19879.844    2207.9474     1755.143    3903.1493    87.512349    180.16147    103.33213    46.918641    20.162395    21.014809           90           90           90 
  166000    272.39255   -10913.652   -9686.7953   -10913.652            0    1967.1767    47.161622    20.032956    21.001904            0            0            0     19842.32    2166.8551    1521.8441    2212.8309     745.7276   -227.60402   -68.240714    47.161622    20.032956    21.001904           90           90           90 
  166500    254.81064   -10943.554   -9795.8854   -10943.554            0    1733.1384    46.948549    20.151904    21.033552            0            0            0    19899.899    1674.0505    2819.8243    705.54034   -159.33419    300.45636    267.26591    46.948549    20.151904    21.033552           90           90           90 
  167000    264.17966   -10971.542   -9781.6759   -10971.542            0    1394.8525    47.285679    20.163929    20.950504            0            0            0    19975.574    1241.7694     1600.669     1342.119   -84.303106    386.34968    359.26088    47.285679    20.163929    20.950504           90           90           90 
  167500    261.48117   -10919.669   -9741.9567   -10919.669            0    1385.7837    46.786664    20.183099    21.184246            0            0            0    20004.281    2035.1639    589.27796    1532.9094   -188.63292    366.48621    773.63382    46.786664    20.183099    21.184246           90           90           90 
  168000    264.63141   -10845.658   -9653.7567   -10845.658            0      2488.07    47.258299    20.087011    20.946786            0            0            0    19884.322    1230.8392    3511.1452    2722.2257   -171.80152    96.868065   -148.43493    47.258299    20.087011    20.946786           90           90           90 
  168500    269.79802   -10908.909   -9693.7372   -10908.909            0    2772.2685    47.049862    20.171593    20.851632            0            0            0    19789.672     3443.628    1771.3057    3101.8717    234.44635   -1689.5868    26.548053    47.049862    20.171593    20.851632           90           90           90 
  169000    261.22519   -10898.384   -9721.8245   -10898.384            0    2272.2194      46.6691     20.06667    21.270203            0            0            0    19919.405    2100.5435    3149.6724    1566.4424    23.387712   -531.64793    263.12503      46.6691     20.06667    21.270203           90           90           90 
  169500    262.68272   -10871.312   -9688.1876   -10871.312            0    2462.8636    47.242816    20.134822    20.928732            0            0            0    19907.948    2314.0722    1923.0188    3151.4998    82.106283    154.21325    158.26285    47.242816    20.134822    20.928732           90           90           90 
  170000    264.24799   -10928.093   -9737.9189   -10928.093            0    1274.9136    47.059336    20.148457    20.992988            0            0            0    19904.985    1559.7488    1101.0304    1163.9615    96.376788    539.38618    340.27928    47.059336    20.148457    20.992988           90           90           90 
  170500    250.83708    -10941.27   -9811.4983    -10941.27            0    1667.3876    47.035258    20.125728    21.040275            0            0            0     19917.12    1296.6941     2606.829    1098.6398   -317.49524    1111.7484     401.0495    47.035258    20.125728    21.040275           90           90           90 
  171000    258.71641   -10873.229   -9707.9695   -10873.229            0    1346.6382    47.143975    20.232201    21.015269            0            0            0    20044.918    879.17762     1829.511     1331.226   -299.04938    558.45917     479.6223    47.143975    20.232201    21.015269           90           90           90 
  171500    265.65629   -10895.251   -9698.7336   -10895.251            0    1328.7676    46.718077    20.143785    21.134493            0            0            0    19889.225    992.90199    1516.5083    1476.8925   -98.264369   -63.609046   -82.386987    46.718077    20.143785    21.134493           90           90           90 
  172000     266.4333   -10905.248   -9705.2313   -10905.248            0    1917.3763    47.173208     20.16121    20.935003            0            0            0    19910.631    1930.6286    1843.0731    1978.4273   -27.119684    297.79625    304.43479    47.173208     20.16121    20.935003           90           90           90 
  172500    279.21661   -10919.309   -9661.7161   -10919.309            0    748.08681    47.331453    20.219391    21.037485            0            0            0     20133.15    124.41204    558.04185    1561.8065    79.055025   -1093.3437   -76.001648    47.331453    20.219391    21.037485           90           90           90 
  173000     261.1475   -10888.542   -9712.3328   -10888.542            0     2677.632    46.986515     20.11234    21.056346            0            0            0    19898.432    2363.4731    2772.1961     2897.227   -94.105625    108.68133    202.77306    46.986515     20.11234    21.056346           90           90           90 
  173500    259.94576   -10873.692   -9702.8953   -10873.692            0    2186.3683    47.087476    20.146704    21.013436            0            0            0    19934.553    2014.7927    2374.3724    2169.9399     96.22995     94.23544    897.29571    47.087476    20.146704    21.013436           90           90           90 
  174000    258.38272   -10939.958   -9776.2014   -10939.958            0    1632.2167    46.706777    20.285479    20.966751            0            0            0    19865.353    3341.2872    298.30772    1257.0551    -504.8618   -213.06999    721.37541    46.706777    20.285479    20.966751           90           90           90 
  174500    267.85621   -10902.294   -9695.8686   -10902.294            0    2483.9631    46.840882    20.082004    21.117437            0            0            0    19864.303    3339.2489    1437.9202    2674.7203    654.47518     -209.604   -70.739089    46.840882    20.082004    21.117437           90           90           90 
  175000    262.54243   -10911.031   -9728.5393   -10911.031            0    2094.3304    47.325301    20.095912    20.897113            0            0            0    19874.097    715.61396    2939.8856    2627.4917    253.65159   -130.34463   -381.53112    47.325301    20.095912    20.897113           90           90           90 
  175500    254.10104   -10876.989   -9732.5174   -10876.989            0    2696.7393    46.897241     20.02401    21.058502            0            0            0    19775.424    2926.5969    2399.8841    2763.7367   -249.19034   -1044.7271    1183.5621    46.897241     20.02401    21.058502           90           90           90 
  176000    261.31098   -10910.436   -9733.4908   -10910.436            0    1800.3676    46.984988    20.131229    21.011243            0            0            0    19873.811    1163.7917    2393.5903    1843.7206   -278.02365    446.59438     201.5277    46.984988    20.131229    21.011243           90           90           90 
  176500     269.1261   -10872.104   -9659.9593   -10872.104            0    1850.6098    47.158506    20.310737    20.812421            0            0            0    19934.636    626.52391    2540.1012    2385.2044   -555.14278   -455.18257   -109.04008    47.158506    20.310737    20.812421           90           90           90 
  177000    273.80879   -10983.285   -9750.0494   -10983.285            0    1598.0969    47.022787    20.048985    21.200786            0            0            0    19987.235    2135.4394    1892.5403    766.31086   -541.99084     76.79764    486.37186    47.022787    20.048985    21.200786           90           90           90 
  177500      257.343   -10895.375   -9736.3014   -10895.375            0     2069.421    47.119493    20.179956    20.882434            0            0            0    19856.465    2709.8005    1223.7255     2274.737   -120.48498   -34.865892    429.47481    47.119493    20.179956    20.882434           90           90           90 
  178000    265.96825   -10893.025    -9695.103   -10893.025            0    768.77823    47.215189    20.107028    21.128138            0            0            0    20058.148    676.16715     641.7008    988.46673   -200.65848   -297.31158    668.35121    47.215189    20.107028    21.128138           90           90           90 
  178500    266.73333   -10973.757   -9772.3892   -10973.757            0    2190.6474      46.7689    20.167762    20.977473            0            0            0    19786.456    1487.6166     2556.627    2527.6985    227.00694    1102.9829   -421.66621      46.7689    20.167762    20.977473           90           90           90 
  179000    262.67941   -10945.028   -9761.9188   -10945.028            0    1074.6001    47.186203    20.091225    20.963536            0            0            0    19874.031     705.0342    1476.4622     1042.304   -810.94531   -403.09985     913.6502    47.186203    20.091225    20.963536           90           90           90 
  179500    268.08619   -10879.123   -9671.6621   -10879.123            0     1699.242    46.989431    20.094605    21.153037            0            0            0    19973.418    945.83258    3275.0339    876.85964    115.24255    598.76579   -74.207856    46.989431    20.094605    21.153037           90           90           90 
  180000    267.42752   -10946.713   -9742.2184   -10946.713            0     2466.244    47.159441    20.159895    20.878476            0            0            0    19849.781    1631.0779    2708.2713    3059.3829   -339.22456    63.793758    198.79944    47.159441    20.159895    20.878476           90           90           90 
  180500    274.28886   -10891.745   -9656.3464   -10891.745            0    2460.6324    46.846932    20.105566    21.049468            0            0            0    19826.159     2957.062    2118.8029    2306.0322   -488.07239   -78.436862     636.3219    46.846932    20.105566    21.049468           90           90           90 
  181000    266.53476   -10918.565   -9718.0917   -10918.565            0    1623.2699    46.899381    20.098068     21.05108            0            0            0    19842.473    1228.8974    2655.4904    985.42183    216.87901    230.21122    -55.90935    46.899381    20.098068     21.05108           90           90           90 
  181500    260.49534   -10906.855   -9733.5832   -10906.855            0    2273.6183    47.192939     20.04155    20.919901            0            0            0    19786.453    2040.8768    2825.6887    1954.2893   -286.87134   -395.59432    552.61855    47.192939     20.04155    20.919901           90           90           90 
  182000    269.68598   -10938.561   -9723.8948   -10938.561            0    1585.3738    46.965561    20.136309    21.147072            0            0            0    19999.062    1923.7734    2030.5868    801.76125   -693.14745   -509.78757   -119.89421    46.965561    20.136309    21.147072           90           90           90 
  182500    260.62275   -10895.856   -9722.0097   -10895.856            0    1523.5956    46.828055    20.220336    20.945477            0            0            0    19832.833    3266.8364    990.34978    313.60054    41.798185    267.62604   -27.063198    46.828055    20.220336    20.945477           90           90           90 
  183000     272.1241    -10907.47   -9681.8218    -10907.47            0    2417.3737    46.932568    20.092299    20.989108            0            0            0    19792.376    2990.2528    1721.8546    2540.0136   -313.41632   -143.07079   -251.38278    46.932568    20.092299    20.989108           90           90           90 
  183500     261.1681   -10839.278    -9662.976   -10839.278            0    1905.6663    46.866046    20.218007    21.059819            0            0            0    19954.979    2438.8047    1165.9879    2112.2064   -120.56969    -157.9898      374.478    46.866046    20.218007    21.059819           90           90           90 
  184000     263.0409   -10876.666   -9691.9292   -10876.666            0    1156.2983    47.519637     20.09569      20.9338            0            0            0    19990.521    243.90933    1145.4971    2079.4885   -280.03529   -406.26112   -520.97051    47.519637     20.09569      20.9338           90           90           90 
  184500    257.71385   -10848.188   -9687.4441   -10848.188            0    1457.5643    46.926814    20.139063    21.176843            0            0            0    20013.431    843.31456    2400.2375    1129.1407    580.19621   -710.57229    123.15762    46.926814    20.139063    21.176843           90           90           90 
  185000    260.70481   -10936.203   -9761.9872   -10936.203            0    1702.6735    47.235514    20.172174    20.921967            0            0            0     19935.35     275.3958    2721.2397    2111.3851    14.940498    64.925795    27.284543    47.235514    20.172174    20.921967           90           90           90 
  185500    267.01751   -10871.622   -9668.9736   -10871.622            0    2346.0517    47.100616    20.257555    20.994235            0            0            0    20031.509    2450.2335    1818.0323    2769.8892   -360.86423    246.35396   -350.35884    47.100616    20.257555    20.994235           90           90           90 
  186000    265.95427   -10883.504   -9685.6447   -10883.504            0    2317.5326    47.074095    20.083107    21.083223            0            0            0    19931.955    1114.8806    3197.8786    2639.8385   -9.1839421    710.21201    -126.9815    47.074095    20.083107    21.083223           90           90           90 
  186500    262.32136   -10924.862   -9743.3657   -10924.862            0    1309.6363     47.03366    20.277707    20.905511            0            0            0    19938.313     940.8522    1224.9925    1763.0643    33.196823   -857.26539   -91.709863     47.03366    20.277707    20.905511           90           90           90 
  187000    260.19318   -10909.805    -9737.894   -10909.805            0    1035.3264    46.900126    20.073543    21.250227            0            0            0    20006.063     116.0754    2245.2282    744.67549   -46.871025    407.39684   -339.84802    46.900126    20.073543    21.250227           90           90           90 
  187500      265.406    -10894.14   -9698.7508    -10894.14            0    2823.2628    47.170133    20.225585    20.771955            0            0            0    19817.349    2670.8365    2435.3357    3363.6163   -121.08556   -612.33609   -240.69342    47.170133    20.225585    20.771955           90           90           90 
  188000    270.99121   -10879.974   -9659.4285   -10879.974            0    2326.6145    47.136088    20.035696    21.138583            0            0            0    19963.369    1538.2252    3432.2298    2009.3886    171.23632    66.651809    273.57879    47.136088    20.035696    21.138583           90           90           90 
  188500     270.6975   -10926.346    -9707.123   -10926.346            0    1389.1958    47.226084    20.170832    20.994635            0            0            0    19999.267    1382.3751    638.83163    2146.3806    19.188319   -489.97217   -8.7972801    47.226084    20.170832    20.994635           90           90           90 
  189000    261.50887   -10922.143   -9744.3062   -10922.143            0     2297.305    47.197743    20.078744    20.932915            0            0            0    19837.524    747.15145     3314.712    2830.0514    46.393653    66.915792   -333.64215    47.197743    20.078744    20.932915           90           90           90 
  189500    257.16218   -10894.708   -9736.4487   -10894.708            0    1951.5074    46.754379    20.114185    21.093853            0            0            0    19837.213    1931.2357     1894.978    2028.3084   -121.29719    31.559258    267.97536    46.754379    20.114185    21.093853           90           90           90 
  190000     271.7511   -10875.679    -9651.711   -10875.679            0     2567.493    47.045701    20.117153    20.994231            0            0            0    19869.476    2582.7856    3251.3436      1868.35    573.48182    81.205834    -452.5303    47.045701    20.117153    20.994231           90           90           90 
  190500    267.27194   -10883.328   -9679.5343   -10883.328            0    1473.8055    47.167826    20.179708    21.022692            0            0            0    20010.091    472.12196    2011.1905    1938.1042    19.521157    317.89065   -466.15892    47.167826    20.179708    21.022692           90           90           90 
  191000    262.34943   -10904.005    -9722.382   -10904.005            0    1039.0957    47.120254    20.185214    21.067151            0            0            0     20037.65    500.90899    1972.3048    644.07344   -460.37355    487.66668    331.21598    47.120254    20.185214    21.067151           90           90           90 
  191500    269.24432   -10920.417     -9707.74   -10920.417            0    1514.4357    46.874511    20.110961    21.188776            0            0            0    19974.478    1294.1431     2019.484      1229.68   -459.03307   -63.516921   -383.99073    46.874511    20.110961    21.188776           90           90           90 
  192000    258.40723   -10960.255    -9796.388   -10960.255            0    1901.4053    47.341099    20.196399    20.799737            0            0            0    19887.038    1635.6614    1666.7773    2401.7773   -229.97346    200.93361    594.65537    47.341099    20.196399    20.799737           90           90           90 
  192500    268.93345   -10911.431   -9700.1533   -10911.431            0     2024.741    46.800954    20.157173     21.17574            0            0            0    19976.661    3499.1123    1862.7177    712.39314    266.08588    67.325659    670.64418    46.800954    20.157173     21.17574           90           90           90 
  193000    264.14615   -10890.266   -9700.5507   -10890.266            0    2917.3315     47.08943    20.005551    20.973733            0            0            0    19758.305    3045.4911    2696.1886    3010.3148   -118.68073    399.14538    407.55196     47.08943    20.005551    20.973733           90           90           90 
  193500    254.94294    -10898.73   -9750.4665    -10898.73            0    1688.1147    47.013716    20.234051    20.977409            0            0            0    19955.345    1504.7395    2252.1558    1307.4488   -17.781072    290.95434   -1049.8752    47.013716    20.234051    20.977409           90           90           90 
  194000    267.34383   -10894.977   -9690.8588   -10894.977            0    1276.7267    47.416819    19.982674    21.104288            0            0            0    19996.626    210.07291    1903.4727    1716.6346   -453.76346    151.94645   -307.57514    47.416819    19.982674    21.104288           90           90           90 
  194500    265.80604   -10863.053   -9665.8611   -10863.053            0    2047.5763    46.958614      20.1636    20.927849            0            0            0    19815.632    870.84603    2377.5974    2894.2853   -135.05233   -522.77954    129.92391    46.958614      20.1636    20.927849           90           90           90 
  195000    263.68469   -10900.454   -9712.8172   -10900.454            0    2942.2215    46.819068    20.052681     20.98854            0            0            0    19705.046    1992.7357    4338.1107     2495.818   -96.209363    187.44891   -133.64383    46.819068    20.052681     20.98854           90           90           90 
  195500    271.59864   -10859.571   -9636.2897   -10859.571            0    2353.8421    46.990394    20.142844    21.029052            0            0            0    19904.422    2323.1121    2775.6915    1962.7228    467.44848   -530.33054    1011.5509    46.990394    20.142844    21.029052           90           90           90 
  196000    262.74035   -10880.252   -9696.8687   -10880.252            0    1139.9122    47.062509    20.105139    21.088613            0            0            0    19954.009    1341.7733    1291.8623    786.10101   -94.519862    683.42634      364.849    47.062509    20.105139    21.088613           90           90           90 
  196500    264.96037   -10875.151   -9681.7683   -10875.151            0    2331.5329    47.242255    20.140673    20.925821            0            0            0    19910.726      2277.05    2580.9996    2136.5492    184.87576   -875.05924    1178.2443    47.242255    20.140673    20.925821           90           90           90 
  197000    278.68952   -10912.671   -9657.4523   -10912.671            0    2913.2088    46.736007    20.080011    21.159878            0            0            0    19857.689    3290.3943    3173.2222    2276.0101   -437.20486     314.4613   -131.29198    46.736007    20.080011    21.159878           90           90           90 
  197500    261.21157   -10897.138   -9720.6398   -10897.138            0    1992.4928    46.945833    20.207159     20.90783            0            0            0    19834.044     2397.576    1889.3697    1690.5327   -198.44491   -263.75786    159.52087    46.945833    20.207159     20.90783           90           90           90 
  198000    256.68356   -10871.277    -9715.173   -10871.277            0    1978.4037    46.772192    20.232173    21.049405            0            0            0    19919.117    2807.0026    1511.9685    1616.2399    292.88089    790.22244     422.6084    46.772192    20.232173    21.049405           90           90           90 
  198500    255.98109   -10875.221   -9722.2812   -10875.221            0    2360.4715    47.281053    19.947585    21.084718            0            0            0      19885.9    683.52135    3893.5369    2504.3563    46.214465    588.53878   -235.68798    47.281053    19.947585    21.084718           90           90           90 
  199000    271.13108   -10901.871    -9680.696   -10901.871            0    1807.3982    47.063634    20.209104    20.839485            0            0            0    19820.723     1958.274    2030.1087    1433.8117   -163.03485      237.665    52.210292    47.063634    20.209104    20.839485           90           90           90 
  199500    264.35657   -10850.178   -9659.5152   -10850.178            0    2647.3629    47.117637    19.989902    21.079432            0            0            0    19854.232    3335.3178    1968.7939    2637.9771    329.92391    324.91497   -117.80823    47.117637    19.989902    21.079432           90           90           90 
  200000    265.67047   -10909.821   -9713.2404   -10909.821            0    3561.9302    46.894206    20.140664    20.961543            0            0            0    19797.767     3938.502    2877.5135    3869.7751    88.435075    209.20289   -492.53296    46.894206    20.140664    20.961543           90           90           90 
  200500    258.70223   -10933.611   -9768.4148   -10933.611            0    2249.7477    46.961723    20.094459    20.962817            0            0            0     19781.99    2970.1306    2170.9748    1608.1376    -152.5654    70.074204   -623.58495    46.961723    20.094459    20.962817           90           90           90 
  201000    263.10007   -10858.251   -9673.2476   -10858.251            0    1261.2576    47.210091    19.998421    21.184063            0            0            0    20000.452    2596.3381    684.28972    503.14496    286.37544    228.65053    -195.1616    47.210091    19.998421    21.184063           90           90           90 
  201500     265.3154   -10903.093   -9708.1118   -10903.093            0    2144.3381    47.061041    20.272464    20.796022            0            0            0    19840.305    2473.8307    1387.9494    2571.2343    -17.13432    347.27931   -244.77903    47.061041    20.272464    20.796022           90           90           90 
  202000    274.51851   -10949.783   -9713.3509   -10949.783            0     1465.459    46.976407    20.052466    21.110741            0            0            0    19886.166     629.7785    2400.1246    1366.4739   -93.252726    549.89879    94.570396    46.976407    20.052466    21.110741           90           90           90 
  202500    268.21652   -10951.444   -9743.3958   -10951.444            0    1882.8202     47.09438    20.197256    20.958977            0            0            0    19935.703    1660.7195    851.68618     3136.055    -35.10612    1143.9845   -125.74012     47.09438    20.197256    20.958977           90           90           90 
  203000    258.69043    -10934.61   -9769.4671    -10934.61            0    1548.5213    47.037019    20.217603    21.000442            0            0            0    19970.912    1377.0414    961.75429    2306.7681   -474.93294   -364.61149    278.91673    47.037019    20.217603    21.000442           90           90           90 
  203500    263.31048   -10887.746    -9701.795   -10887.746            0    1562.4704     46.90135    20.034748    21.246109            0            0            0    19964.049    1541.1918     1917.147    1229.0724     66.18201    402.77882    406.02829     46.90135    20.034748    21.246109           90           90           90 
  204000    256.59551    -10858.68   -9702.9724    -10858.68            0    2039.3843    47.065458    20.308647    20.855551            0            0            0    19934.482    1543.5702    1656.3069    2918.2758   -208.25017    179.48133     399.4233    47.065458    20.308647    20.855551           90           90           90 
  204500    266.81712   -10931.852    -9730.107   -10931.852            0    954.39578    47.005621    20.101824    21.172797            0            0            0    20006.149    464.65797    1848.8321    549.69734    -404.5249    37.864174     205.3104    47.005621    20.101824    21.172797           90           90           90 
  205000    269.01785   -10962.909   -9751.2511   -10962.909            0    2410.3876    46.983451     20.14596    20.971734            0            0            0    19850.307    1567.2449     3418.307    2245.6108    444.44687    311.93195   -29.188129    46.983451     20.14596    20.971734           90           90           90 
  205500     264.4982   -10867.692   -9676.3909   -10867.692            0    1650.6396     47.06353    20.198114    21.050261            0            0            0    20010.263    2765.1274    762.95082    1423.8405    189.89293    646.56259    243.27459     47.06353    20.198114    21.050261           90           90           90 
  206000    259.63076   -10914.003   -9744.6251   -10914.003            0    1831.3876    47.140269     20.12116    21.116265            0            0            0    20029.134     269.7012    3189.6664    2034.7953    157.04602 -0.062921948    37.809739    47.140269     20.12116    21.116265           90           90           90 
  206500    270.93967    -10886.57   -9666.2571    -10886.57            0    2588.2915    47.044512    20.194006    20.860567            0            0            0    19817.896    2706.3871    2150.0976    2908.3899    42.415132   -923.14072   -428.24025    47.044512    20.194006    20.860567           90           90           90 
  207000     263.9648    -10886.26   -9697.3619    -10886.26            0    3628.2072    46.737783     19.90099    21.207428            0            0            0    19725.626    4262.4148    4043.6039    2578.6031   -130.54128     353.5877   -39.452741    46.737783     19.90099    21.207428           90           90           90 
  207500     257.9626    -10876.14   -9714.2753    -10876.14            0     711.2588    47.334835    20.121777    21.031023            0            0            0    20031.229   -561.95048    1312.1731    1383.5538   -107.35626    1605.4243   -617.91761    47.334835    20.121777    21.031023           90           90           90 
  208000    269.26123   -10919.391   -9706.6372   -10919.391            0    1418.6146    47.181824    20.167835    20.989457            0            0            0    19972.628    1102.3712    1552.2095    1601.2632   -318.83672    939.54601   -462.61347    47.181824    20.167835    20.989457           90           90           90 
  208500    267.15192   -10901.001   -9697.7482   -10901.001            0      1162.47    46.786677    20.259389    21.144441            0            0            0    20042.171    2200.6029    90.423306    1196.3839    343.30939   -391.61171   -66.814316    46.786677    20.259389    21.144441           90           90           90 
  209000    284.44637   -10915.417   -9634.2694   -10915.417            0    2496.5321     46.94199    20.174544    20.968685            0            0            0    19858.042     2688.743    2185.2291    2615.6242    163.96686    166.68314    645.58308     46.94199    20.174544    20.968685           90           90           90 
  209500    266.75821   -10879.905   -9678.4254   -10879.905            0    982.14637    47.268091    20.108517    21.052141            0            0            0    20009.875    1068.9436    977.89466    899.60083    109.56984   -779.35575    22.420371    47.268091    20.108517    21.052141           90           90           90 
  210000    259.67061   -10877.063   -9707.5057   -10877.063            0    1485.9309    46.906893    20.135583    21.157734            0            0            0    19983.429    2190.0188    1212.0567    1055.7173    152.45546   -802.64233     476.9242    46.906893    20.135583    21.157734           90           90           90 
  210500    265.11163   -10877.626   -9683.5623   -10877.626            0    1079.0365    47.318193    20.104763    20.933515            0            0            0    19914.494    1335.6807    865.11761    1036.3112    -503.5629   -156.30776   -156.52098    47.318193    20.104763    20.933515           90           90           90 
  211000     268.2369   -10904.945   -9696.8049   -10904.945            0    2737.8349    46.731176    20.185376    21.035528            0            0            0    19842.526    3552.7739    2218.7954    2441.9353   -112.33926    202.69914   -94.937952    46.731176    20.185376    21.035528           90           90           90 
  211500    255.26283   -10920.485   -9770.7802   -10920.485            0    1428.8896    47.003326     20.10695    21.201683            0            0            0    20037.573    2488.1893    1345.7655    452.71394    57.106462    523.81141   -777.88499    47.003326     20.10695    21.201683           90           90           90 
  212000    250.97587   -10852.552   -9722.1562   -10852.552            0    1746.5402     47.27632    20.264315    20.793907            0            0            0    19921.025    1809.4874    1718.1126    1712.0205   -22.000821    615.36453    93.201776     47.27632    20.264315    20.793907           90           90           90 
  212500    264.22255   -10826.515   -9636.4558   -10826.515            0     2398.275    46.912121    20.068097    21.198668            0            0            0    19957.211    2759.9262    1609.4801    2825.4188   -237.12547   -889.67024    444.91752    46.912121    20.068097    21.198668           90           90           90 
  213000    261.01617   -10932.829   -9757.2111   -10932.829            0    1824.2163    47.150756    20.071584    20.964498            0            0            0    19840.599   -344.50769    4070.5201    1746.6364   -48.754039    431.04685    425.72985    47.150756    20.071584    20.964498           90           90           90 
  213500    267.92107    -10867.99   -9661.2723    -10867.99            0    2865.0256    46.703034    20.146569    21.099215            0            0            0    19852.376    3507.5388    3014.5265    2073.0116     127.2018    819.56448    130.97486    46.703034    20.146569    21.099215           90           90           90 
  214000    275.98105   -10931.529   -9688.5089   -10931.529            0    2135.6036    47.238079    20.075006    20.972357            0            0            0    19888.185    2022.9771    2349.6559    2034.1778   -164.97839   -543.43625   -95.809517    47.238079    20.075006    20.972357           90           90           90 
  214500    268.98634    -10926.57   -9715.0541    -10926.57            0    2036.7053    46.873965    20.169134    21.081252            0            0            0    19930.369    1314.0342     2318.255    2477.8266    -670.2794    1395.1185   -451.36234    46.873965    20.169134    21.081252           90           90           90 
  215000    256.95747   -10932.891   -9775.5534   -10932.891            0    2109.6471    46.929831    20.165347     21.05783            0            0            0     19928.21    2547.9969    1299.2045      2481.74    35.021278    497.62889   -393.91065    46.929831    20.165347     21.05783           90           90           90 
  215500    261.82119   -10871.354   -9692.1101   -10871.354            0    1748.7707    47.130888     20.05959    20.992907            0            0            0    19847.246    743.20196    3062.6915    1440.4187   -297.97835   -51.545794   -237.74193    47.130888     20.05959    20.992907           90           90           90 
  216000    263.09426   -10918.149   -9733.1713   -10918.149            0    1044.5654      47.0964    20.137231    21.094572            0            0            0    20005.904    289.87659    1820.5308    1023.2888   -195.47881   -81.396782    306.29515      47.0964    20.137231    21.094572           90           90           90 
  216500    264.16708   -10866.872   -9677.0629   -10866.872            0    2339.6238    47.114644    20.184702    20.930706            0            0            0    19904.997    1480.9609     3058.796    2479.1144    129.70498    -988.0004     -95.6448    47.114644    20.184702    20.930706           90           90           90 
  217000    275.52636   -10919.388   -9678.4162   -10919.388            0    974.53008    46.791705    20.232638    21.160731            0            0            0    20033.279    1432.3951     782.5477    708.64747    429.28395   -359.30094    190.18006    46.791705    20.232638    21.160731           90           90           90 
  217500     266.6065   -10931.393   -9730.5964   -10931.393            0    1847.6133    46.972898    20.266712    20.962265            0            0            0    19955.786     1487.431    2193.7482    1861.6606   -112.07932    558.88941    -322.4317    46.972898    20.266712    20.962265           90           90           90 
  218000    257.61496     -10879.9   -9719.6012     -10879.9            0    1431.4377    47.001209    20.181601    20.970625            0            0            0    19891.888    2169.5443    845.74425    1279.0244   -370.59021   -167.75163    691.40687    47.001209    20.181601    20.970625           90           90           90 
  218500     270.5945   -10913.435    -9694.676   -10913.435            0    1244.4054    46.925341    20.155033    21.098651            0            0            0    19954.719    1557.5039    1367.0852    808.62699    210.95898   -134.71425    503.59035    46.925341    20.155033    21.098651           90           90           90 
  219000    272.99684   -10952.486    -9722.907   -10952.486            0    2358.7762    47.514994    20.026303    20.851008            0            0            0     19840.77    1093.4398    2563.9671    3418.9217   -567.55341    496.65525   -5.2144111    47.514994    20.026303    20.851008           90           90           90 
  219500    265.60247   -10957.711   -9761.4361   -10957.711            0    1996.7945    47.146614    20.139084    21.038772            0            0            0    19976.095    1427.0621    1868.2572    2695.0642    227.89629   -1163.8923   -715.91922    47.146614    20.139084    21.038772           90           90           90 
  220000     259.3973    -10874.41   -9706.0831    -10874.41            0    2115.0791    46.883669    20.176292    21.066356            0            0            0    19927.479    2346.3675    1908.5383    2090.3313   -391.49816    -182.6047    279.68303    46.883669    20.176292    21.066356           90           90           90 
  220500    260.98002   -10916.811   -9741.3558   -10916.811            0    2164.5702     47.13337    20.091998    20.942993            0            0            0    19833.089    1762.5839    2134.4915    2596.6352   -208.97818    808.98203   -138.89472     47.13337    20.091998    20.942993           90           90           90 
  221000    261.75356   -10901.709   -9722.7699   -10901.709            0    2381.0214    47.083541    20.004867     21.11574            0            0            0    19888.915     1677.361    3400.6288    2065.0744    95.905379   -199.23037   -419.88966    47.083541    20.004867     21.11574           90           90           90 
  221500    269.81695   -10937.804   -9722.5474   -10937.804            0    1575.2516    47.000865    20.199923    20.949899            0            0            0    19890.124    993.82983    2098.3048      1633.62    361.60327    206.84175    -122.7952    47.000865    20.199923    20.949899           90           90           90 
  222000    260.61082    -10932.12   -9758.3278    -10932.12            0     2429.901    46.755323    20.219707    20.966828            0            0            0    19821.597    1815.7514    1982.6298    3491.3217   -356.15682    337.83991   -48.106603    46.755323    20.219707    20.966828           90           90           90 
  222500    270.92751   -10929.049   -9708.7903   -10929.049            0    1232.6891    47.110433    20.155203    21.086259            0            0            0    20021.832    1877.8302    272.27911     1547.958   -187.57565   -349.27323    778.33731    47.110433    20.155203    21.086259           90           90           90 
  223000    271.89624   -10874.505   -9649.8837   -10874.505            0    2788.1793    46.907188    20.151058    21.000039            0            0            0    19849.856    3265.0438    1722.8368    3376.6572    374.92158    555.93332    477.72457    46.907188    20.151058    21.000039           90           90           90 
  223500    256.75303   -10827.498   -9671.0815   -10827.498            0    1349.4287    47.254139    20.043374    21.054643            0            0            0    19941.534    1933.9108    836.39429    1277.9809   -109.61853    201.58241   -438.27372    47.254139    20.043374    21.054643           90           90           90 
  224000    264.77139   -10868.579   -9676.0474   -10868.579            0    2588.5865    46.728653    20.302828    20.973446            0            0            0    19898.008    3292.9905    985.44838    3487.3205   -281.23236   -34.571038   -110.63018    46.728653    20.302828    20.973446           90           90           90 
  224500    263.19497   -10908.869   -9723.4374   -10908.869            0    2315.6088    47.102804    20.046679    21.047904            0            0            0    19874.584     1560.085    3453.5982    1933.1431   -98.238651   -802.23214    710.97235    47.102804    20.046679    21.047904           90           90           90 
  225000    263.15733   -10855.517   -9670.2549   -10855.517            0    2856.9937    47.265774    20.100928    20.888541            0            0            0    19845.909    1090.9221    4263.1411    3216.9177    94.602357    612.15147   -78.847777    47.265774    20.100928    20.888541           90           90           90 
  225500    262.99975   -10886.481   -9701.9286   -10886.481            0    1559.8121    47.212385    20.011048    21.172658            0            0            0    20003.277    166.50083     1979.051    2533.8845    114.92976    175.87165    449.59825    47.212385    20.011048    21.172658           90           90           90 
  226000    256.94426   -10914.334    -9757.056   -10914.334            0    1251.2568    46.947701    20.262302    21.023123            0            0            0    19998.634      1323.17    1652.1993    778.40128   -60.892826   -421.96421    739.60863    46.947701    20.262302    21.023123           90           90           90 
  226500     260.9188   -10890.777   -9715.5974   -10890.777            0    1895.4683    47.348977    19.975581     21.02501            0            0            0    19885.945    1389.6292    2615.5115    1681.2643    141.05364   -270.73098    24.163059    47.348977    19.975581     21.02501           90           90           90 
  227000    260.00887   -10897.704   -9726.6233   -10897.704            0     1786.699    47.185216     20.10405    21.053951            0            0            0    19972.071     1758.868    2493.4077    1107.8214   -337.44396    16.831291    406.87112    47.185216     20.10405    21.053951           90           90           90 
  227500    260.86088   -10874.735   -9699.8169   -10874.735            0    2153.1832    46.970802    20.215992    20.959766            0            0            0    19902.583    1151.3351    2745.2629    2562.9517   -195.36285   -1056.6168    445.28794    46.970802    20.215992    20.959766           90           90           90 
  228000    270.13745   -10894.144   -9677.4439   -10894.144            0    712.09661    46.866672    20.263707     21.11069            0            0            0    20048.665    525.64279    755.89916    854.74788    396.43094     477.2869    206.05582    46.866672    20.263707     21.11069           90           90           90 
  228500    265.82198   -10874.256   -9676.9928   -10874.256            0    2034.7533    46.840536    20.286951    20.955591            0            0            0    19913.085    3820.8426    213.42743      2069.99    7.5351159    50.025774   -581.38363    46.840536    20.286951    20.955591           90           90           90 
  229000    272.47523   -10908.609   -9681.3791   -10908.609            0    2478.2947    47.160336    20.117793    20.927973            0            0            0    19855.663    1138.3609    3036.7329    3259.7903    159.21278    812.35438   -808.41865    47.160336    20.117793    20.927973           90           90           90 
  229500    259.61696    -10881.39   -9712.0747    -10881.39            0    2222.9609    47.077272    20.070776    21.144738            0            0            0    19979.184    2667.9896     2625.702    1375.1911    211.84469    788.32838     534.3056    47.077272    20.070776    21.144738           90           90           90 
  230000    263.21079    -10943.21   -9757.7078    -10943.21            0    1872.2938    47.128796    20.210499    20.965875            0            0            0    19969.922    1487.9893    1314.2202    2814.6718   -184.71693    432.09013   -82.314041    47.128796    20.210499    20.965875           90           90           90 
  230500    267.89638   -10927.837   -9721.2305   -10927.837            0    2651.6517     46.78584    20.169501     21.11292            0            0            0    19923.144    2684.8864    2404.9229    2865.1457   -62.256111     16.22459   -221.39873     46.78584    20.169501     21.11292           90           90           90 
  231000    263.18679   -10850.431   -9665.0362   -10850.431            0     2077.996    47.295919     20.14248    20.989241            0            0            0     19995.55    1905.3747    2682.0037    1646.6096    273.53816   -165.43458     520.3417    47.295919     20.14248    20.989241           90           90           90 
  231500    265.38038   -10941.641   -9746.3666   -10941.641            0     1077.061     47.07021    20.113624    21.083405            0            0            0    19960.766    38.548009    1903.8409    1288.7941   -216.30513    138.82373    938.83393     47.07021    20.113624    21.083405           90           90           90 
  232000    260.55514   -10889.158   -9715.6165   -10889.158            0    3259.3151    46.974469    20.048183    21.105051            0            0            0    19875.741    2724.2268    4179.3063    2874.4123    505.80432    -383.2036    30.651014    46.974469    20.048183    21.105051           90           90           90 
  232500    265.87274   -10917.606   -9720.1141   -10917.606            0    2015.4717    47.179091    20.147508    20.863243            0            0            0    19831.371    2171.6055    1410.6497    2464.1599   -120.43521   -436.88535    900.52872    47.179091    20.147508    20.863243           90           90           90 
  233000    278.69327   -10953.702   -9698.4664   -10953.702            0     2295.597    46.784573    20.098762    21.083492            0            0            0    19825.061    3789.2616    1811.8416    1285.6877   -18.110824    27.127201   -585.77358    46.784573    20.098762    21.083492           90           90           90 
  233500    264.02785   -10886.992   -9697.8096   -10886.992            0    2161.0817    47.340561    20.162638    21.004464            0            0            0    20048.984    669.59971     2598.332    3215.3133    402.42669   -299.93719    -139.7151    47.340561    20.162638    21.004464           90           90           90 
  234000     269.0183   -10909.354   -9697.6943   -10909.354            0    1654.2956     46.91623    20.176497    21.072254            0            0            0    19947.104    1192.3535    1633.6383    2136.8949     348.9059     351.7957    208.03895     46.91623    20.176497    21.072254           90           90           90 
  234500    258.79826   -10926.036   -9760.4077   -10926.036            0    975.06073    47.041681    20.156616    21.042457            0            0            0    19952.481    661.10219    873.26461    1390.8154     438.5711    415.35618    -477.3054    47.041681    20.156616    21.042457           90           90           90 
  235000    272.15422   -10960.192   -9734.4078   -10960.192            0    1619.5148     46.85695    20.205882    20.934568            0            0            0    19820.556    1483.6669    2432.9894    941.88816   -189.58016   -659.99052    300.47148     46.85695    20.205882    20.934568           90           90           90 
  235500    273.12745   -10841.193   -9611.0263   -10841.193            0    2036.8645    46.932605    20.050093    21.310007            0            0            0    20052.783    2729.0521    1717.7955    1663.7459   -29.208275    907.18266    855.61997    46.932605    20.050093    21.310007           90           90           90 
  236000    259.95371   -10911.638    -9740.805   -10911.638            0    1759.4656    47.240761    20.134491    20.959358            0            0            0    19935.885    930.77067    2893.0281     1454.598    236.66668   -207.47413   -744.85609    47.240761    20.134491    20.959358           90           90           90 
  236500    266.06472   -10901.894   -9703.5375   -10901.894            0    1948.3814    46.977585    20.037675    21.076214            0            0            0    19839.495    1531.6611    3553.0877     760.3954    480.05395   -136.27864    516.37584    46.977585    20.037675    21.076214           90           90           90 
  237000     266.9037   -10935.597   -9733.4617   -10935.597            0    2512.0666    46.857615    20.067751    21.097783            0            0            0    19838.814    2689.6912      2518.46    2328.0487    550.68009    -580.6605    61.132511    46.857615    20.067751    21.097783           90           90           90 
  237500    259.39031   -10941.212   -9772.9175   -10941.212            0    1693.6123    47.292761    20.242879    20.770601            0            0            0    19884.561    2296.3978    233.06604     2551.373    -180.3153    -455.8704    685.04366    47.292761    20.242879    20.770601           90           90           90 
  238000     275.8829     -10907.7   -9665.1221     -10907.7            0    2783.6193    46.855422    20.010289    21.280703            0            0            0    19952.586    3520.6023    3007.6608    1822.5948   -756.00382    909.54003    432.96699    46.855422    20.010289    21.280703           90           90           90 
  238500    257.43404   -10872.808   -9713.3242   -10872.808            0    1720.7477     47.04219    20.115403    20.956871            0            0            0    19830.913    2052.0184    1102.9123    2007.3123    628.93253   -64.572942   -164.77052     47.04219    20.115403    20.956871           90           90           90 
  239000    263.60992   -10899.368   -9712.0678   -10899.368            0    2597.2374    47.185247    20.161299    20.943329            0            0            0    19923.721    2618.7961    2658.8813    2514.0347    631.34395    51.773472   -1400.3998    47.185247    20.161299    20.943329           90           90           90 
  239500    267.89753   -10854.626   -9648.0141   -10854.626            0     2011.978    46.686845    20.177752    21.145803            0            0            0    19920.099    1743.3319    3178.4464    1114.1558   -83.536907    691.21404    188.10779    46.686845    20.177752    21.145803           90           90           90 
  240000    264.17809   -10925.806   -9735.9463   -10925.806            0    1047.7851    47.051796    20.164307    21.081762            0            0            0    20001.677    1593.3636    655.47874     894.5129   -250.99249   -334.66508    898.72149    47.051796    20.164307    21.081762           90           90           90 
  240500    259.22694   -10886.448   -9718.8884   -10886.448            0    2407.3495    46.979069    20.073353    21.119943            0            0            0    19916.685    3154.0758    1301.4868    2766.4859   -343.42796    437.95918    66.176775    46.979069    20.073353    21.119943           90           90           90 
  241000     262.4797   -10913.179   -9730.9692   -10913.179            0    2262.6818    47.054812    20.281059    20.771385            0            0            0    19822.578    1285.8989    2374.0171    3128.1294    141.37811   -132.28448    118.46626    47.054812    20.281059    20.771385           90           90           90 
  241500    281.15399    -10895.23   -9628.9114    -10895.23            0    916.98358    46.953713    20.140265    21.219164            0            0            0     20066.12    1813.3407    416.11313    521.49686   -657.07018    541.57137    26.299131    46.953713    20.140265    21.219164           90           90           90 
  242000    268.94663   -10890.966   -9679.6293   -10890.966            0    1900.0309    47.029918    20.186192    20.983522            0            0            0    19920.811    1226.8255    2738.9789    1734.2883    239.01743    562.11145    559.22815    47.029918    20.186192    20.983522           90           90           90 
  242500    271.26889   -10890.942   -9669.1454   -10890.942            0    2347.7202    47.084193    20.149363    20.952766            0            0            0    19878.235    1879.1796    2664.9856    2498.9955    309.40188    509.64977   -390.10032    47.084193    20.149363    20.952766           90           90           90 
  243000    268.80627   -10891.035   -9680.3304   -10891.035            0    1648.9768    46.999793    20.127828    21.072353            0            0            0    19934.525    1182.6151    2449.2922    1315.0231    25.610733    187.33427    460.92601    46.999793    20.127828    21.072353           90           90           90 
  243500    258.63514   -10909.764   -9744.8703   -10909.764            0     2447.998    46.833261    20.324495    20.835079            0            0            0    19832.129    2171.3076    2467.7832    2704.9032    553.78091   -195.21427   -876.01533    46.833261    20.324495    20.835079           90           90           90 
  244000    269.30679   -10900.522   -9687.5636   -10900.522            0    1880.8196    46.775024    20.089209    21.190585            0            0            0    19912.225    2611.7521    1229.9656    1800.7412   -28.635279    343.90194    32.232275    46.775024    20.089209    21.190585           90           90           90 
  244500    272.97538   -10898.594   -9669.1122   -10898.594            0    1393.6208    47.037525    20.211946    21.011054            0            0            0    19975.627    1158.4791     1467.747    1554.6364   -163.86167    235.99878   -12.093402    47.037525    20.211946    21.011054           90           90           90 
  245000    270.47391   -10918.441   -9700.2254   -10918.441            0    2433.4041    47.260891    20.026728    20.946231            0            0            0    19825.211    1721.1806    2285.9411    3293.0906    190.01945   -226.58573    460.17142    47.260891    20.026728    20.946231           90           90           90 
  245500    266.66851   -10838.357    -9637.281   -10838.357            0    1550.4194    47.021493    20.205932    21.085724            0            0            0    20033.822    1637.9096    1972.9244    1040.4242    -424.5933   -466.34632   -422.38677    47.021493    20.205932    21.085724           90           90           90 
  246000    273.36671   -10943.835   -9712.5898   -10943.835            0    1796.9034    46.759861    20.232054    20.996515            0            0            0    19863.712     1426.477    1757.4996    2206.7336    -236.9798   -72.864673    536.97454    46.759861    20.232054    20.996515           90           90           90 
  246500    262.91584   -10918.537   -9734.3632   -10918.537            0    1346.4947    47.009212    20.084931    21.026516            0            0            0    19852.748    1063.9632    2556.7064    418.81456   -9.3851611   -219.56653    158.95669    47.009212    20.084931    21.026516           90           90           90 
  247000    270.93259   -10900.543   -9680.2615   -10900.543            0    1708.9222    47.281551    20.173214    21.003583            0            0            0    20033.655    138.61449     2908.005    2080.1472   -174.96644    95.460891   -352.53968    47.281551    20.173214    21.003583           90           90           90 
  247500    264.97798   -10948.703   -9755.2412   -10948.703            0    1446.1714    47.113039    20.128088    21.122845            0            0            0    20030.696    1048.7662    2262.2411     1027.507    219.78941   -1627.5071   -548.13929    47.113039    20.128088    21.122845           90           90           90 
  248000    257.54634   -10930.228   -9770.2381   -10930.228            0    2401.5396    47.069086    20.122985    20.821933            0            0            0    19721.921    1957.9793    2428.3672    2818.2723    37.113543    177.44783    631.83441    47.069086    20.122985    20.821933           90           90           90 
  248500    270.98622   -10912.152   -9691.6289   -10912.152            0    1505.7559    46.506373    20.161099    21.238523            0            0            0    19913.655    2979.5931    1186.0349     351.6397   -71.784031   -105.36963   -796.25265    46.506373    20.161099    21.238523           90           90           90 
  249000    260.46464   -10906.923   -9733.7891   -10906.923            0    2555.6446    47.024467    20.182567     20.91525            0            0            0    19850.129    3063.8507    1790.0723    2813.0108    79.821167    370.00916    534.72705    47.024467    20.182567     20.91525           90           90           90 
  249500    262.15505   -10949.499   -9768.7512   -10949.499            0    1683.0378    46.916856    20.119135    21.079251            0            0            0    19897.265    1732.3334    1532.5416    1784.2385    110.94404   -301.69886      457.183    46.916856    20.119135    21.079251           90           90           90 
  250000    268.94084   -10855.388    -9644.077   -10855.388            0    1793.6699    47.188475    20.068275    21.050671            0            0            0    19934.803    905.71067    2310.0224    2165.2765   -509.88429    352.56071     -313.133    47.188475    20.068275    21.050671           90           90           90 
  250500    270.58477   -10906.877   -9688.1618   -10906.877            0    2968.1929    46.965339     20.20818    20.872091            0            0            0    19809.368     3333.853    1573.4541    3997.2717   -103.10022    1206.5146    348.22866    46.965339     20.20818    20.872091           90           90           90 
  251000    264.34423   -10884.636   -9694.0281   -10884.636            0    1989.8328    46.833235    20.220959    21.121888            0            0            0      20002.7    2013.0021    2026.1542     1930.342    160.48527    -841.8535    308.87012    46.833235    20.220959    21.121888           90           90           90 
  251500    270.83275   -10901.048   -9681.2157   -10901.048            0    1434.6295    47.052526    20.303321    20.954696            0            0            0    20018.494    2875.0487   -243.52062    1672.3603   -714.91512   -210.67117    1524.5968    47.052526    20.303321    20.954696           90           90           90 
  252000    266.35076   -10965.789   -9766.1439   -10965.789            0    2238.2805     47.12002    19.987363    21.095673            0            0            0     19868.01    1674.0082    2693.5764    2347.2567     26.09824   -319.07499    307.85689     47.12002    19.987363    21.095673           90           90           90 
  252500    266.32293    -10888.69   -9689.1708    -10888.69            0    2940.7144    46.952195    20.116277    20.976736            0            0            0    19812.598    2791.9046    3342.7552    2687.4835    378.97637    248.01327   -517.80802    46.952195    20.116277    20.976736           90           90           90 
  253000    263.44626   -10907.589   -9721.0262   -10907.589            0     2538.108    46.788013    20.302512    20.846892            0            0            0    19802.759    3681.0387    407.34623    3525.9391   -226.78051    54.353648    261.99818    46.788013    20.302512    20.846892           90           90           90 
  253500    268.95146   -10889.183    -9677.825   -10889.183            0    1957.5525    47.069913    20.097121    21.115982            0            0            0     19975.08    2485.5535     1294.284      2092.82    194.04002   -297.22703   -563.29139    47.069913    20.097121    21.115982           90           90           90 
  254000    262.15137   -10894.139    -9713.408   -10894.139            0    1779.6661    47.123916    20.170311    20.918674            0            0            0    19883.284    2182.0466    1256.6247    1900.3268    585.68462    574.09275    1501.7616    47.123916    20.170311    20.918674           90           90           90 
  254500    269.18831    -10883.97   -9671.5444    -10883.97            0    2556.3657    47.146457    20.143937    21.000631            0            0            0    19944.619    995.98797    3922.1027    2751.0065   -131.48221    683.64446    713.54113    47.146457    20.143937    21.000631           90           90           90 
  255000    262.41127   -10907.854   -9725.9523   -10907.854            0    2772.7102    46.970616    19.985287    21.182613            0            0            0    19884.569    2969.3748     3126.009    2222.7469   -210.60575   -445.44582   -91.656199    46.970616    19.985287    21.182613           90           90           90 
  255500    260.12156   -10910.124   -9738.5359   -10910.124            0    2408.4726    47.123669    20.210341    20.872286            0            0            0    19878.461    2535.3727    1642.6041     3047.441   -24.617517    5.9164246    584.81135    47.123669    20.210341    20.872286           90           90           90 
  256000    276.23413   -10908.258   -9664.0983   -10908.258            0    2705.1374     46.90429    20.005827    21.137205            0            0            0    19834.289    2244.4333    3317.1016    2553.8774       82.507    498.12828   -111.40059     46.90429    20.005827    21.137205           90           90           90 
  256500    267.38584    -10906.08    -9701.773    -10906.08            0     1276.909    47.232855    20.259606    20.883611            0            0            0    19983.925    1124.6614    1209.3502    1496.7156    60.535169   -474.43619   -21.599587    47.232855    20.259606    20.883611           90           90           90 
  257000    262.84422   -10856.811   -9672.9593   -10856.811            0    2140.5044    46.673765    20.157931    21.204993            0            0            0    19950.644    3268.5006    877.27435    2275.7383   -272.95741     498.8952   -162.72712    46.673765    20.157931    21.204993           90           90           90 
  257500    261.19453   -10930.895   -9754.4738   -10930.895            0    1947.2778    47.112006    20.169806    20.895368            0            0            0    19855.615    1837.2522     2482.151    1522.4302   -17.706234   -299.97378   -342.56495    47.112006    20.169806    20.895368           90           90           90 
  258000    256.22669   -10886.395   -9732.3491   -10886.395            0     1405.247    46.984915    20.124081    21.077002            0            0            0      19928.9    133.93467    2748.0921    1333.7142   -219.10151   -520.48339     350.8949    46.984915    20.124081    21.077002           90           90           90 
  258500    259.98677   -10867.204   -9696.2228   -10867.204            0    1027.1133    47.088395    20.235777    21.006424            0            0            0    20016.397    882.70724    1482.9955    715.63701    24.371998    -595.1714     88.61895    47.088395    20.235777    21.006424           90           90           90 
  259000      267.705   -10902.155   -9696.4108   -10902.155            0    3110.1605    46.999128    20.051474    21.047071            0            0            0    19834.798    2952.2836    3359.4674    3018.7306    425.21158    428.09784    408.47914    46.999128    20.051474    21.047071           90           90           90 
  259500     271.3169   -10957.081   -9735.0691   -10957.081            0    1572.7377    46.940175    20.108009    21.006612            0            0            0    19827.584    940.57266    1664.8811    2112.7593   -383.11844   -448.68622    251.40924    46.940175    20.108009    21.006612           90           90           90 
  260000    249.85792   -10907.644   -9782.2829   -10907.644            0    1729.6923    46.927352    20.175315    20.970079            0            0            0    19853.928    2010.6224    1913.3883    1265.0661   -182.83942   -113.28391   -437.18544    46.927352    20.175315    20.970079           90           90           90 
  260500    266.53009   -10917.978   -9717.5252   -10917.978            0    2601.7841    46.742768    20.114175    21.120914            0            0            0     19857.72    2659.7804    2513.4026    2632.1693    209.11354   -1273.6677   -54.591301    46.742768    20.114175    21.120914           90           90           90 
  261000    264.49457   -10926.045     -9734.76   -10926.045            0    2813.6027    47.160055    20.161083    20.887431            0            0            0    19859.724    3490.0754    1585.5608     3365.172    274.57729   -74.683696   -440.64096    47.160055    20.161083    20.887431           90           90           90 
  261500     270.1238    -10882.59   -9665.9514    -10882.59            0    1680.3152    47.059889     20.16404    21.088707            0            0            0    20011.443    456.78543    1906.5689    2677.5914   -248.89383   -215.47829     346.1528    47.059889     20.16404    21.088707           90           90           90 
  262000    270.33911   -10885.824   -9668.2158   -10885.824            0    1025.3035    46.847989    20.212391     21.03742            0            0            0     19920.54    1394.7918    876.49756    804.62113    -4.991125   -104.45047   -470.84003    46.847989    20.212391     21.03742           90           90           90 
  262500    267.54026   -10965.534   -9760.5319   -10965.534            0    1928.4292    47.068088    20.080615     20.98035            0            0            0    19829.708    2316.8919    1420.2211    2048.1747   -417.53414    291.98376    80.491654    47.068088    20.080615     20.98035           90           90           90 
  263000    264.04002   -10833.353   -9644.1161   -10833.353            0    2410.1818    47.075759    20.189303    20.892181            0            0            0    19856.488    2695.1217    1114.4173    3421.0065   -33.315205    661.28312     1177.338    47.075759    20.189303    20.892181           90           90           90 
  263500    266.16199   -10873.801   -9675.0061   -10873.801            0     1529.711    47.042728    20.146534    21.221164            0            0            0    20112.315    1595.5859    2368.0269    625.52022    87.753102   -592.27123    228.61767    47.042728    20.146534    21.221164           90           90           90 
  264000     265.3373   -10924.676    -9729.596   -10924.676            0    2821.5688    46.929616    20.120698    20.981079            0            0            0    19811.523    2710.0315      3120.09    2634.5849   -70.963626    704.30863    1024.9653    46.929616    20.120698    20.981079           90           90           90 
  264500    265.08209   -10916.461   -9722.5303   -10916.461            0    2543.6694    46.717606    20.206652    21.015671            0            0            0    19838.928    1599.6923    2930.4881    3100.8278    229.20158    1062.3659      180.693    46.717606    20.206652    21.015671           90           90           90 
  265000    270.42677   -10920.916   -9702.9127   -10920.916            0    3177.9749    47.158125    19.911477     21.00525            0            0            0    19723.676    1553.6929    4641.1502    3339.0815   -404.04689    392.36958    569.86508    47.158125    19.911477     21.00525           90           90           90 
  265500    260.79604   -10899.092   -9724.4656   -10899.092            0    1349.3026    47.072004     20.15273    21.006101            0            0            0    19927.005    1292.8817    795.96849    1959.0576     78.26825    850.75895   -698.97849    47.072004     20.15273    21.006101           90           90           90 
  266000    256.68365   -10909.454     -9753.35   -10909.454            0    1518.3701    47.143271    20.111971     21.05782            0            0            0    19965.847     1946.965    1103.2415    1504.9036    471.63313   -322.43063    674.88629    47.143271    20.111971     21.05782           90           90           90 
  266500    276.29561   -10933.991   -9689.5544   -10933.991            0     2039.585    46.806534    20.020464     21.20036            0            0            0    19866.614    2698.4121    2907.0518    513.29125   -313.52774   -280.06016   -772.12598    46.806534    20.020464     21.20036           90           90           90 
  267000    274.13117    -10901.87   -9667.1818    -10901.87            0    1454.4242    47.068191    20.227295    20.904159            0            0            0    19902.059    1986.4066     748.2119     1628.654    49.239959   -181.51214   -739.77609    47.068191    20.227295    20.904159           90           90           90 
  267500    265.34007   -10903.781    -9708.688   -10903.781            0    1761.2424     46.88184    20.192676     21.07193            0            0            0     19948.16    1872.3641    1543.6154    1867.7477   -577.84736    93.034371   -305.07046     46.88184    20.192676     21.07193           90           90           90 
  268000    255.06036   -10887.672   -9738.8786   -10887.672            0    926.42689    47.126996    20.188885    21.070227            0            0            0    20047.089    1732.0245    429.52771    617.72847    -218.7783   -571.01615   -704.36279    47.126996    20.188885    21.070227           90           90           90 
  268500    269.90838   -10932.218   -9716.5492   -10932.218            0    2225.1836    47.256509    20.197878    20.840376            0            0            0    19891.747    1479.7836    2193.0734    3002.6938   -441.08755    1542.5952    871.08241    47.256509    20.197878    20.840376           90           90           90 
  269000    260.68192   -10935.084   -9760.9714   -10935.084            0    1317.8777    46.827445    19.999604    21.291931            0            0            0     19940.54    1200.2113    2615.6352    137.78654    107.40827    487.81924    702.76337    46.827445    19.999604    21.291931           90           90           90 
  269500    275.80236   -10867.379   -9625.1637   -10867.379            0    2331.0125     47.07056    20.233804    20.841107            0            0            0    19849.414    2852.0937     1802.064    2338.8799   -199.75229    574.55493    326.39895     47.07056    20.233804    20.841107           90           90           90 
  270000    267.33806   -10928.734   -9724.6422   -10928.734            0    1161.2433    47.154385     20.18769    21.005015            0            0            0    19995.475    1314.4726    945.23945    1224.0179    104.23442    235.56543   -349.73514    47.154385     20.18769    21.005015           90           90           90 
  270500    256.09674   -10893.466   -9740.0057   -10893.466            0    2343.8004     46.94081    20.017592    21.157728            0            0            0     19880.69    2595.5209    2826.8244    1609.0558   -380.28726    291.01832   -664.93381     46.94081    20.017592    21.157728           90           90           90 
  271000    263.24997   -10932.264   -9746.5852   -10932.264            0     1460.653    46.872982    20.393915    20.849865            0            0            0    19930.878    1677.9445    167.14471    2536.8697    182.43392    379.60764   -251.21138    46.872982    20.393915    20.849865           90           90           90 
  271500    268.03261   -10866.465   -9659.2449   -10866.465            0    2466.1145    47.148755    20.014009    21.127794            0            0            0    19936.939    2592.3092    2250.0402    2555.9942    228.39534    113.66155    87.939695    47.148755    20.014009    21.127794           90           90           90 
  272000    264.04721   -10879.659   -9690.3891   -10879.659            0    861.42222    47.122011    20.212979    20.948149            0            0            0    19952.614    737.24794    355.34214    1491.6766    232.83163    819.41747   -191.23436    47.122011    20.212979    20.948149           90           90           90 
  272500    263.38704   -10889.579   -9703.2828   -10889.579            0    2145.2755    47.034388    20.158811    21.060272            0            0            0    19968.452    1828.9626    2397.3759    2209.4879   -105.02976    256.14472   -77.401826    47.034388    20.158811    21.060272           90           90           90 
  273000    273.87025   -10909.506   -9675.9928   -10909.506            0    3212.2354     46.80728    20.100431     21.13614            0            0            0    19885.864    3605.3184    3322.7374    2708.6504   -412.61384   -229.66398    16.582209     46.80728    20.100431     21.13614           90           90           90 
  273500    267.46633   -10896.353   -9691.6833   -10896.353            0    1796.6851    47.293749     20.18153    20.815871            0            0            0    19867.921    1411.2741    1896.7137    2082.0674    323.59975   -457.98977    297.00702    47.293749     20.18153    20.815871           90           90           90 
  274000    257.67536   -10878.585   -9718.0138   -10878.585            0    2178.5043    47.102123    20.038531    21.125771            0            0            0    19939.714    1651.7413    3627.5128    1256.2589   -108.79595    387.25945    574.26253    47.102123    20.038531    21.125771           90           90           90 
  274500    257.49758    -10903.81   -9744.0397    -10903.81            0    2788.1339    47.041093    20.126571     20.84998            0            0            0    19740.259    2742.6486    3175.2277    2446.5256   -602.15343    242.99984    436.03438    47.041093    20.126571     20.84998           90           90           90 
  275000    267.12459   -10942.403   -9739.2725   -10942.403            0    2289.5849     46.74747    20.118362    21.093324            0            0            0    19837.903    2560.1942    1702.1344    2606.4259   -465.34919   -871.04515    -306.3643     46.74747    20.118362    21.093324           90           90           90 
  275500    260.42233   -10942.623   -9769.6795   -10942.623            0    1367.4256    47.117806    20.230666    20.958486            0            0            0    19978.144    1479.0109    587.83922    2035.4266    221.39529     291.1703    300.58526    47.117806    20.230666    20.958486           90           90           90 
  276000    271.99781   -10896.115   -9671.0357   -10896.115            0    1133.1654    47.241074    20.082727    21.030896            0            0            0    19952.634    1044.1516    1409.1242     946.2204    -20.78969     313.0558    422.85736    47.241074    20.082727    21.030896           90           90           90 
  276500    263.59541   -10931.221   -9743.9864   -10931.221            0    2060.4317    46.992809    20.101684    21.022905            0            0            0    19858.964    1827.0061    2413.6706    1940.6184    274.12249   -85.485929   -1042.4038    46.992809    20.101684    21.022905           90           90           90 
  277000    270.97486   -10920.411   -9699.9394   -10920.411            0    2352.8319    47.083636    20.159166    20.876179            0            0            0    19814.977     2524.821    2111.1071    2422.5675   -910.29222    365.27606    455.74712    47.083636    20.159166    20.876179           90           90           90 
  277500    259.36564   -10927.884   -9759.6999   -10927.884            0    2549.3526    46.754769    20.140182    21.118468            0            0            0    19886.196    2400.4269      3099.76     2147.871   -358.99654    375.97679     318.1746    46.754769    20.140182    21.118468           90           90           90 
  278000    262.83889   -10931.045   -9747.2177   -10931.045            0    1005.9278    47.205101    20.220367    20.967571            0            0            0     20013.64    497.52656      1194.25    1326.0069    205.79787      97.9717   -51.994492    47.205101    20.220367    20.967571           90           90           90 
  278500    257.73219    -10861.34   -9700.5129    -10861.34            0    2126.3768    47.150213    20.138202    20.999805            0            0            0    19939.746    2216.5125    1791.9821    2370.6358   -118.47227   -286.45205    123.16666    47.150213    20.138202    20.999805           90           90           90 
  279000    264.42183   -10863.995   -9673.0379   -10863.995            0    1918.7128      47.0385    20.115365    20.990325            0            0            0    19860.975    1956.6858     2149.266    1650.1865   -496.48138   -187.41143   -24.606622      47.0385    20.115365    20.990325           90           90           90 
  279500     260.9792   -10894.361   -9718.9092   -10894.361            0    1056.4981    47.298413    20.167109    21.048694            0            0            0    20077.765    1233.6742   -240.70598    2176.5262    703.53179   -537.09068   -161.48279    47.298413    20.167109    21.048694           90           90           90 
  280000    269.85696   -10825.742    -9610.305   -10825.742            0    2132.1676    47.060018     20.20981    20.978868            0            0            0    19952.456    1842.9202    2497.5671    2056.0154    341.96119    62.885077    819.65912    47.060018     20.20981    20.978868           90           90           90 
  280500    262.29958   -10815.953   -9634.5544   -10815.953            0    2139.0475    46.919341    20.193285    21.054779            0            0            0    19948.469    2668.6843    1434.1843    2314.2738    147.17009    388.47457   -86.566997    46.919341    20.193285    21.054779           90           90           90 
  281000    266.13729   -10916.762   -9718.0786   -10916.762            0    2527.4826    47.220003    20.143611     20.82012            0            0            0     19803.71    2748.1186    1663.5131    3170.8161   -97.472724    277.17027   -161.19049    47.220003    20.143611     20.82012           90           90           90 
  281500     265.9546   -10914.405   -9716.5442   -10914.405            0    2165.5439    46.999189    20.126582    21.150254            0            0            0    20006.723    3354.9788    1253.7413    1887.9115   -497.50542    463.70304    503.95692    46.999189    20.126582    21.150254           90           90           90 
  282000    263.46088   -10891.694   -9705.0648   -10891.694            0    2849.7524    47.040783    20.168556    20.959964            0            0            0    19885.654     3341.443    3270.2899    1937.5244    162.95658    237.79526    312.02888    47.040783    20.168556    20.959964           90           90           90 
  282500    263.28685   -10884.046   -9698.2009   -10884.046            0    2766.8797    47.099482    20.019352    21.099282            0            0            0    19894.537    3224.4579    3035.6258    2040.5555   -195.39765   -1401.9428    90.271368    47.099482    20.019352    21.099282           90           90           90 
  283000    263.99473   -10896.022   -9706.9889   -10896.022            0      2460.68    46.892076    20.329072    20.806172            0            0            0    19833.949    2684.7931    1237.4897    3459.7572   -389.56227    567.41427   -196.61625    46.892076    20.329072    20.806172           90           90           90 
  283500    261.59932   -10917.537    -9739.293   -10917.537            0    1866.5801    47.067537    20.114295    21.041836            0            0            0    19920.944    2361.6679    1681.7032    1556.3693   -380.91415   -865.94275   -426.21335    47.067537    20.114295    21.041836           90           90           90 
  284000    268.57354   -10857.216   -9647.5596   -10857.216            0    1586.4276    46.985779    20.120983    21.066483            0            0            0    19916.254    1103.3664    1194.1873    2461.7292   -853.36887   -119.82574    127.40971    46.985779    20.120983    21.066483           90           90           90 
  284500    270.26483   -10891.618   -9674.3443   -10891.618            0    2255.1697    47.270534    20.117974    20.922136            0            0            0    19896.687    2389.0104    2205.7257     2170.773   -130.32205    20.357098    13.801046    47.270534    20.117974    20.922136           90           90           90 
  285000    262.88078   -10900.378   -9716.3621   -10900.378            0    1231.3072    47.162179    19.922164    21.187148            0            0            0    19906.866    1051.8767    1287.0537    1354.9913   -138.62916    303.46439    554.94332    47.162179    19.922164    21.187148           90           90           90 
  285500    268.41793   -10905.086   -9696.1305   -10905.086            0    1409.4715    46.970481    20.173472     20.95989            0            0            0    19860.704    1611.1557    1050.8694    1566.3893   -193.02586   -657.23106    307.29252    46.970481    20.173472     20.95989           90           90           90 
  286000     264.5085     -10912.4   -9721.0528     -10912.4            0    1636.0466    47.059582    20.043499    21.120756            0            0            0    19921.914    2437.9932    679.59841    1790.5482   -432.15198   -484.82083    235.95333    47.059582    20.043499    21.120756           90           90           90 
  286500     266.9157   -10865.861    -9663.672   -10865.861            0    2453.5696    46.993639    20.196753    21.042829            0            0            0    19972.147    3139.7808    2075.3213    2145.6066   -231.48049    157.22783   -233.70972    46.993639    20.196753    21.042829           90           90           90 
  287000    256.88129   -10875.553   -9718.5584   -10875.553            0     2382.986     47.21693     20.11259    20.923193            0            0            0     19869.81    2355.6507    2111.7116    2681.5956   -117.20327    272.54917   -570.30866     47.21693     20.11259    20.923193           90           90           90 
  287500    277.00433   -10866.694   -9619.0651   -10866.694            0    2064.1302    46.591069    20.137127    21.251286            0            0            0    19938.175     4130.647     979.5934    1082.1501   -76.414719   -717.12195   -34.717117    46.591069    20.137127    21.251286           90           90           90 
  288000     255.3436   -10927.862   -9777.7932   -10927.862            0    2278.6863    46.990323    20.229032    20.909429            0            0            0     19875.85    1614.4055    2225.6538    2995.9997    169.01083     -295.266      411.096    46.990323    20.229032    20.909429           90           90           90 
  288500    268.99289   -10885.649   -9674.1045   -10885.649            0    1608.2064    46.770605    20.190509    21.141053            0            0            0    19963.969    2399.5008     1096.722    1328.3962   -34.027673    284.02951    466.70435    46.770605    20.190509    21.141053           90           90           90 
  289000    274.56479   -10870.918   -9634.2774   -10870.918            0    1952.1451    47.288621    20.022273    20.996457            0            0            0    19879.984    1776.1261    2076.3188    2003.9904   -10.015267   -759.37114   -275.11387    47.288621    20.022273    20.996457           90           90           90 
  289500    265.55771   -10917.031   -9720.9577   -10917.031            0    2714.3818    47.006056    20.142089     20.90265            0            0            0    19790.632    1167.9909     4321.326    2653.8287   -119.10263   -343.16245    468.35607    47.006056    20.142089     20.90265           90           90           90 
  290000    267.70631   -10889.572   -9683.8219   -10889.572            0    1922.4404     47.06181    20.074728    21.097943            0            0            0    19932.346    2024.3401    2065.3787    1677.6023   -132.67424    1081.9131    145.14217     47.06181    20.074728    21.097943           90           90           90 
  290500    266.02322   -10897.547   -9699.3771   -10897.547            0     2330.863    46.709966    20.310571     20.94499            0            0            0    19870.639     1970.775    2519.4716    2502.3424    91.408262   -838.02287    252.41786    46.709966    20.310571     20.94499           90           90           90 
  291000    262.82837   -10871.527   -9687.7473   -10871.527            0    2405.7403    47.134993    20.049234    21.074252            0            0            0      19915.6    3100.4616    2089.0338    2027.7256    206.73718    1151.9061    732.27961    47.134993    20.049234    21.074252           90           90           90 
  291500    264.27504   -10886.695   -9696.3994   -10886.695            0    2048.6272    47.370971    20.103897    20.949299            0            0            0    19950.879    2280.7074    1721.9981    2143.1761   -242.64522   -236.02876   -1003.7494    47.370971    20.103897    20.949299           90           90           90 
  292000    251.90474   -10888.457   -9753.8768   -10888.457            0    2025.2404    46.865456    20.172216    21.081363            0            0            0    19929.902    2308.0669    1747.9187    2019.7357    460.58229   -589.75435   -355.52647    46.865456    20.172216    21.081363           90           90           90 
  292500    267.86247   -10901.623   -9695.1698   -10901.623            0    3154.5978    46.850135    20.107958    21.030093            0            0            0     19811.62    3685.5377    2650.8823    3127.3735   -417.48142    594.28426    198.75293    46.850135    20.107958    21.030093           90           90           90 
  293000    261.78449    -10898.79   -9719.7116    -10898.79            0    1856.2593    47.013563    20.287504    20.940617            0            0            0    19972.905    1935.5528      951.451    2681.7739   -351.49094   -95.045929    489.89904    47.013563    20.287504    20.940617           90           90           90 
  293500    271.79523   -10939.256   -9715.0896   -10939.256            0    1954.3431    46.979892    20.035606    21.158567            0            0            0    19915.937    1618.0993    2609.9226    1635.0072   -244.82984    562.35035   -135.37516    46.979892    20.035606    21.158567           90           90           90 
  294000    271.54393   -10899.245   -9676.2098   -10899.245            0    2655.2453     46.93815    20.194848    20.965449            0            0            0    19873.334    2343.9392    3108.5641    2513.2324    34.484595   -578.95938   -886.63285     46.93815    20.194848    20.965449           90           90           90 
  294500    265.57345    -10844.53   -9648.3863    -10844.53            0    2302.6781    46.964696    20.230996     20.93534            0            0            0    19891.558    2578.6145    1483.6654    2845.7544   -150.38808   -11.766312    245.39265    46.964696    20.230996     20.93534           90           90           90 
  295000    269.34426     -10892.3   -9679.1722     -10892.3            0    2397.0005    47.042968    20.068045    21.143741            0            0            0    19960.968    2190.5777    2680.3289    2320.0948   -231.60931    272.44977    -343.9258    47.042968    20.068045    21.143741           90           90           90 
  295500    265.01552   -10893.643   -9700.0124   -10893.643            0    1351.0516    47.078056     20.25146    20.889022            0            0            0     19915.58     715.9969     988.3431    2348.8148   -649.06874    173.99662    1450.0469    47.078056     20.25146    20.889022           90           90           90 
  296000    270.36544   -10875.996   -9658.2695   -10875.996            0    2025.7108    47.143058    20.088103    21.063218            0            0            0    19947.174    614.31395    3711.6352    1751.1834    127.90995   -154.02248    1205.2724    47.143058    20.088103    21.063218           90           90           90 
  296500    262.84081   -10881.899   -9698.0632   -10881.899            0    2741.3294    46.972641     20.15526     20.89577            0            0            0    19782.982    4014.3241    2253.9416    1955.7223   -303.49292    167.53921   -485.76083    46.972641     20.15526     20.89577           90           90           90 
  297000     265.7879    -10930.79   -9733.6799    -10930.79            0    1159.6424    47.023515     20.08475    21.100945            0            0            0    19928.905    1483.0561    748.08957    1247.7814   -51.763427    1720.7034    32.691794    47.023515     20.08475    21.100945           90           90           90 
  297500    261.53253   -10859.719    -9681.775   -10859.719            0     2411.778    46.748486    20.360081    21.049361            0            0            0    20034.844    3213.4157    1513.1913    2508.7269   -130.82552    618.17981    522.58304    46.748486    20.360081    21.049361           90           90           90 
  298000    252.19657   -10922.601   -9786.7071   -10922.601            0    2499.6716    47.326954    20.055484    20.994194            0            0            0    19926.953    1109.2239     2644.994     3744.797   -133.84111   -361.61075    -75.82956    47.326954    20.055484    20.994194           90           90           90 
  298500    256.27795   -10864.134   -9709.8575   -10864.134            0    2529.0566    47.090366    20.138312    21.024947            0            0            0    19938.388    1594.1176    2908.0252    3085.0271   -81.725252    101.05803    1321.3104    47.090366    20.138312    21.024947           90           90           90 
  299000    270.62571   -10919.488   -9700.5883   -10919.488            0    2229.4247    47.019642    20.230423    20.882472            0            0            0    19863.976    2342.3074    1347.8974    2998.0693   -132.63609   -219.79853     875.6488    47.019642    20.230423    20.882472           90           90           90 
  299500     254.0492   -10923.938   -9779.6989   -10923.938            0    2819.0512    46.951181    20.060992    21.078562            0            0            0     19853.63    2806.7172    2612.9488    3037.4876   -572.37286    363.66858     78.41243    46.951181    20.060992    21.078562           90           90           90 
  300000    266.48327    -10857.68   -9657.4381    -10857.68            0    867.26657    46.987216    20.265316    21.083333            0            0            0    20075.777    537.14457    475.83816     1588.817   -470.06784    878.68873    747.31593    46.987216    20.265316    21.083333           90           90           90 
  300500    261.04004   -10904.331   -9728.6058   -10904.331            0      1867.83    47.196644    20.126054    20.941398            0            0            0     19891.86    739.80785    2064.3731    2799.3092    227.75142     953.4578   -819.83501    47.196644    20.126054    20.941398           90           90           90 
  301000     264.2761   -10885.135   -9694.8342   -10885.135            0    2235.8595    46.916218    20.045814    21.206838            0            0            0    19944.475      2287.48    3092.0705    1328.0279    84.267252    99.279386    868.03455    46.916218    20.045814    21.206838           90           90           90 
  301500    258.70491   -10919.822   -9754.6141   -10919.822            0     2503.738    47.264247    20.262228    20.708304            0            0            0    19831.907    2930.0123    1663.8322    2917.3694    140.61373   -1016.4776   -208.23683    47.264247    20.262228    20.708304           90           90           90 
  302000    257.80284   -10873.891    -9712.746   -10873.891            0    1641.3465    46.895929     20.14658    21.163645            0            0            0    19995.255    2782.9797    564.59569    1576.4642   -126.56862    217.74018    37.892854    46.895929     20.14658    21.163645           90           90           90 
  302500    264.68616   -10943.053   -9750.9059   -10943.053            0    574.74083    46.956805    20.179643     21.03121            0            0            0    19928.576    1666.7508    376.56114   -319.08947    150.08095    602.37165    226.02867    46.956805    20.179643     21.03121           90           90           90 
  303000    262.53285   -10889.496    -9707.047   -10889.496            0    1799.1887    47.146374    20.087641    20.949965            0            0            0    19840.862    385.90312    2669.8783    2341.7845   -549.56482     118.1244    138.14676    47.146374    20.087641    20.949965           90           90           90 
  303500    272.66098   -10877.775   -9649.7089   -10877.775            0     1405.412    47.096324    20.161106    21.098505            0            0            0    20033.326    1351.5506    916.17975    1948.5056   -117.53808    361.20114    350.96893    47.096324    20.161106    21.098505           90           90           90 
  304000    264.70216   -10914.558   -9722.3382   -10914.558            0     532.0614    46.972604    20.303222    21.106821            0            0            0    20129.474    1483.7219   -364.31421    476.77652   -25.982976   -130.82082    792.95343    46.972604    20.303222    21.106821           90           90           90 
  304500    268.54741   -10933.007   -9723.4681   -10933.007            0    1956.1189    47.265797    20.109466    20.893765            0            0            0    19859.313    1479.5436    2127.9052     2260.908     304.4963    247.41981    1.1205295    47.265797    20.109466    20.893765           90           90           90 
  305000    273.07409   -10879.564   -9649.6372   -10879.564            0    1954.9075    47.024826    20.094561    21.124678            0            0            0    19961.622    1364.1859    2256.8378    2243.6989   -98.575398    757.28487   -444.82861    47.024826    20.094561    21.124678           90           90           90 
  305500    269.32918   -10905.079   -9692.0197   -10905.079            0    1543.5233    47.347269    20.001411    20.995915            0            0            0    19883.387    1021.6302    2286.2417    1322.6978    179.13729    83.161659    46.376375    47.347269    20.001411    20.995915           90           90           90 
  306000     262.9272   -10902.467    -9718.242   -10902.467            0    2843.4518    46.705147    20.212089    21.013245            0            0            0    19836.684    3220.6365    2719.0042    2590.7147   -148.62609    1225.1896    207.39428    46.705147    20.212089    21.013245           90           90           90 
  306500    253.77404   -10910.485   -9767.4859   -10910.485            0    1436.3761    47.026994    20.089244    21.135198            0            0            0    19967.198    1336.5266    1412.5122    1560.0894    6.8781636    21.374925     579.2053    47.026994    20.089244    21.135198           90           90           90 
  307000    267.45539   -10892.424   -9687.8035   -10892.424            0    2744.2183    47.215216    20.169576     20.80898            0            0            0    19816.619    1829.0596    3518.8354    2884.7599   -85.910249   -242.44561   -440.67572    47.215216    20.169576     20.80898           90           90           90 
  307500    263.24464   -10916.582   -9730.9273   -10916.582            0    1859.2825    47.052629    20.006691    21.124304            0            0            0    19885.731    1807.5423    2366.6836    1403.6215   -170.84366   -47.901394   -430.11767    47.052629    20.006691    21.124304           90           90           90 
  308000    261.43968    -10895.41   -9717.8845    -10895.41            0    2285.0506    47.056652    20.155395    20.888625            0            0            0    19811.721    2969.3871    2084.2871    1801.4776   -270.10284    636.84446    623.72564    47.056652    20.155395    20.888625           90           90           90 
  308500    270.33345    -10873.15    -9655.567    -10873.15            0    3115.5162    46.870175    20.241171    21.013909            0            0            0    19936.048    3741.5404    2305.2205    3299.7878    487.52159   -842.42498    1240.3092    46.870175    20.241171    21.013909           90           90           90 
  309000    265.08559   -10892.087   -9698.1407   -10892.087            0    1625.7732    47.339885    20.080121     21.16615            0            0            0    20120.344    1594.4569    2246.5323    1036.3305    208.51881   -700.94242   -547.88736    47.339885    20.080121     21.16615           90           90           90 
  309500    270.46064   -10869.579   -9651.4232   -10869.579            0    1524.3851     47.06789    20.219888    20.885018            0            0            0    19876.427    1347.3281    1742.3631     1483.464   -93.061993    223.23662    1038.5127     47.06789    20.219888    20.885018           90           90           90 
  310000    267.22599   -10875.861   -9672.2746   -10875.861            0    2145.6064    46.904618    19.985313    21.123725            0            0            0    19801.453    3194.1881    1746.0533    1496.5777    427.56188    670.52164     1050.372    46.904618    19.985313    21.123725           90           90           90 
  310500    266.99716   -10829.014   -9626.4578   -10829.014            0    1008.9761    47.100151    20.303825     20.96059            0            0            0     20044.89    1306.8215    445.61403    1274.4928    318.91099    162.90127    872.37855    47.100151    20.303825     20.96059           90           90           90 
  311000    268.17558   -10888.002   -9680.1385   -10888.002            0    1942.9276    47.142516    20.045701    21.044576            0            0            0    19887.225    1688.3914    2569.7703    1570.6213   -142.48201   -368.88193    165.40053    47.142516    20.045701    21.044576           90           90           90 
  311500    261.59134   -10873.172   -9694.9637   -10873.172            0    2494.7745    46.920892    20.128148    21.039712            0            0            0    19870.549    2348.6426    3008.8095    2126.8714    -235.9473   -893.97644    153.48776    46.920892    20.128148    21.039712           90           90           90 
  312000    264.94628   -10905.644    -9712.325   -10905.644            0    1325.7117    47.570738    20.078681    20.943521            0            0            0    20004.365     759.1209     1938.718    1279.2961    66.905241    572.08563   -129.88655    47.570738    20.078681    20.943521           90           90           90 
  312500    264.86996   -10874.445   -9681.4692   -10874.445            0     2874.207    46.985808     20.07693    21.043966            0            0            0    19851.421    3229.7237    3387.8224    2005.0748   -124.10994    748.47411   -282.55622    46.985808     20.07693    21.043966           90           90           90 
  313000    270.39159   -10951.509   -9733.6642   -10951.509            0    1054.4065     47.10806    20.178216    21.004461            0            0            0    19965.928    1002.8406    1198.8808    961.49805    205.76402    493.32057   -146.29119     47.10806    20.178216    21.004461           90           90           90 
  313500    257.26128   -10900.716   -9742.0104   -10900.716            0    1517.2766    46.750183    20.184541    21.071119            0            0            0    19883.361    1419.2936    1796.1726    1336.3636    -335.6495   -243.00811    134.87445    46.750183    20.184541    21.071119           90           90           90 
  314000    274.11193   -10884.152   -9649.5512   -10884.152            0    2909.7177     46.56084     20.18196    21.036746            0            0            0    19767.999    3558.2294    2417.2612    2753.6626    690.46755   -162.60685    -369.9629     46.56084     20.18196    21.036746           90           90           90 
  314500    263.32968    -10857.77   -9671.7322    -10857.77            0    2207.0135    47.118919    20.181488    20.961468            0            0            0    19932.886    2437.2792     1031.925    3151.8362    138.00017   -119.10019     215.7176    47.118919    20.181488    20.961468           90           90           90 
  315000    264.98085   -10903.379   -9709.9046   -10903.379            0     1615.279    47.032864    20.066535    21.154389            0            0            0    19965.229    1363.3052    2137.4668     1345.065   -43.420255    89.856781   -755.79861    47.032864    20.066535    21.154389           90           90           90 
  315500    259.88226    -10896.67   -9726.1593    -10896.67            0    1549.5297     46.89431    20.323018     20.99959            0            0            0    20013.321    2466.7883    240.93121    1940.8695   -252.44576   -278.54263   -895.42588     46.89431    20.323018     20.99959           90           90           90 
  316000    263.10664   -10848.726   -9663.6925   -10848.726            0    1115.6498    46.899772     20.26768     21.06829            0            0            0    20026.454    1505.9656    719.05509    1121.9287   -298.55917   -248.56145   -271.99583    46.899772     20.26768     21.06829           90           90           90 
  316500    267.61922   -10887.097   -9681.7386   -10887.097            0    2438.1909    47.033478    20.138844    20.947623            0            0            0    19841.586     1542.061    2110.7418    3661.7698    341.43408    128.48582   -352.80699    47.033478    20.138844    20.947623           90           90           90 
  317000    258.22774   -10932.308    -9769.249   -10932.308            0    1903.9974    46.724877    20.241276    21.077795            0            0            0     19934.77    2315.9595    1231.6047    2164.4279    452.98483   -538.55177    255.93147    46.724877    20.241276    21.077795           90           90           90 
  317500    261.00515   -10955.582   -9780.0135   -10955.582            0    2433.3128    47.094151    20.124709    21.040191            0            0            0    19940.969    2167.5442    2924.4715    2207.9227    59.774429    395.34295    632.11557    47.094151    20.124709    21.040191           90           90           90 
  318000    270.96822   -10901.271   -9680.8292   -10901.271            0    2803.6436    47.027951    20.103445    20.947971            0            0            0    19804.711     3545.923    2280.5099     2584.498    -552.8847     439.6806    888.80928    47.027951    20.103445    20.947971           90           90           90 
  318500    264.21401   -10888.417    -9698.396   -10888.417            0     2556.959    47.220591    19.968407    21.200388            0            0            0    19990.269    3541.1752    2466.7372    1662.9644   -216.38344    200.26952    274.26776    47.220591    19.968407    21.200388           90           90           90 
  319000    262.40308   -10886.055   -9704.1902   -10886.055            0    1363.9724     47.10788    20.217496    20.836322            0            0            0    19844.584   -438.09097    2404.5505    2125.4576      150.506    267.10476    995.92119     47.10788    20.217496    20.836322           90           90           90 
  319500     260.3027   -10891.128   -9718.7239   -10891.128            0     1825.436    47.024171    20.095776    21.114034            0            0            0    19952.492    1122.7208     2980.405    1373.1822   -151.90967   -43.942851    331.25593    47.024171    20.095776    21.114034           90           90           90 
  320000    265.95706   -10880.735   -9682.8635   -10880.735            0    1056.4748    47.340169    20.216799    20.925205            0            0            0    20026.816    129.42974    893.54053    2146.4543     444.9599   -912.66624    924.61462    47.340169    20.216799    20.925205           90           90           90 
  320500    259.35418   -10872.989    -9704.857   -10872.989            0     2457.358    46.916452     20.20647    20.967561            0            0            0    19877.581    2627.4063    2094.0961    2650.5716   -51.088171   -1056.1234    659.95307    46.916452     20.20647    20.967561           90           90           90 
  321000     264.3024   -10916.831    -9726.412   -10916.831            0    3110.6676    46.927515    19.995649    21.153766            0            0            0    19849.555    3173.1595    3595.7587    2563.0844    35.869659    827.10164   -336.92137    46.927515    19.995649    21.153766           90           90           90 
  321500    262.87135   -10920.644   -9736.6704   -10920.644            0    2770.1692    46.918738    20.220521    20.714446            0            0            0    19652.237    3117.9649    2783.5957    2408.9471    24.227391   -300.59832   -379.23815    46.918738    20.220521    20.714446           90           90           90 
  322000    265.19244   -10902.598   -9708.1699   -10902.598            0    2433.3593    46.865414    20.041494     21.20921            0            0            0    19920.812    2636.2783    2333.7868    2330.0126   -141.64477    562.51075   -690.73114    46.865414    20.041494     21.20921           90           90           90 
  322500    274.72751   -10940.548   -9703.1742   -10940.548            0    2505.5105    47.259998    20.128211    20.949501            0            0            0    19928.407    963.25947    2861.4923    3691.7797    406.51742   -836.86886   -238.00069    47.259998    20.128211    20.949501           90           90           90 
  323000    267.07545   -10902.651    -9699.742   -10902.651            0    2387.5859    47.060916    20.043861    20.994122            0            0            0    19803.387    963.47556     3083.229    3116.0532    187.75008    127.23716    516.18577    47.060916    20.043861    20.994122           90           90           90 
  323500    271.48684   -10916.004   -9693.2263   -10916.004            0    2538.8218    46.745459    20.111592    21.194028            0            0            0    19925.048    3073.1376    2860.5596    1682.7681    206.12605    452.64831   -708.79624    46.745459    20.111592    21.194028           90           90           90 
  324000     264.6667   -10919.081   -9727.0213   -10919.081            0    1804.0274    46.988091    20.251106    20.902013            0            0            0    19889.536    2104.1299    1041.7834    2266.1688    70.980613   -1116.3192   -85.102909    46.988091    20.251106    20.902013           90           90           90 
  324500    264.74643   -10915.282   -9722.8625   -10915.282            0     2551.522    46.534929    20.074199    21.116478            0            0            0    19725.988    4016.6194    2190.3991    1447.5476   -310.80808   -271.69504    578.77359    46.534929    20.074199    21.116478           90           90           90 
  325000    271.72966    -10919.85   -9695.9789    -10919.85            0     1695.136    46.965327    20.131953    20.973774            0            0            0    19830.783    891.91711    1679.9664    2513.5244   -171.16714   -138.98835    -159.6241    46.965327    20.131953    20.973774           90           90           90 
  325500    260.95244   -10912.813   -9737.4824   -10912.813            0    1672.0158    47.065298    20.220405     21.01921            0            0            0    20003.548    1965.2258    1104.1287    1946.6928     543.3227    245.54328    496.90606    47.065298    20.220405     21.01921           90           90           90 
  326000    269.98831   -10947.247   -9731.2187   -10947.247            0    2209.3394    47.074374    19.954091     21.11388            0            0            0    19832.823    1683.8632    2339.3988    2604.7563   -309.80208   -443.65836    183.86826    47.074374    19.954091     21.11388           90           90           90 
  326500    268.92977   -10903.203   -9691.9423   -10903.203            0    1843.5247    47.239374    20.173168    20.830601            0            0            0    19850.893    494.89293     2184.965     2850.716   -362.81521   -418.04252    365.11002    47.239374    20.173168    20.830601           90           90           90 
  327000    274.89095   -10889.701   -9651.5909   -10889.701            0    1441.3961    47.038049    20.116814    21.183678            0            0            0    20045.176     1809.443    1455.4275    1059.3177    442.75025    462.34558   -1021.3778    47.038049    20.116814    21.183678           90           90           90 
  327500    259.02995   -10921.157   -9754.4847   -10921.157            0     1293.119    47.435767    20.298596    20.800135            0            0            0    20028.023    1193.0717    719.12273    1967.1626    73.349729    167.33209    209.98854    47.435767    20.298596    20.800135           90           90           90 
  328000    252.84046     -10821.2   -9682.4055     -10821.2            0    2267.0285    46.819353    20.136727    21.111753            0            0            0    19903.919     3403.878    1319.0239    2078.1834   -350.91399    -16.18499      561.963    46.819353    20.136727    21.111753           90           90           90 
  328500    256.66312   -10896.082     -9740.07   -10896.082            0    2332.8536    47.208248    20.025845    21.028417            0            0            0    19879.951     88.47674     4351.552    2558.5319    199.21945   -472.34133    36.454315    47.208248    20.025845    21.028417           90           90           90 
  329000    274.33061    -10939.09   -9703.5039    -10939.09            0    1740.5359    46.970298    20.341786    20.938992            0            0            0    20006.364    2543.2526    1684.0799    994.27528   -158.51535    44.286273   -404.57549    46.970298    20.341786    20.938992           90           90           90 
  329500    260.71442   -10908.017   -9733.7582   -10908.017            0    1889.2467    47.029363    20.113296    21.182402            0            0            0    20036.762     2493.577    1727.7572    1446.4058   -49.955173    1055.2231   -417.62772    47.029363    20.113296    21.182402           90           90           90 
  330000    271.88078   -10851.984   -9627.4323   -10851.984            0      2057.54    46.953852    20.204943    20.986574            0            0            0    19909.961    1006.4796    2979.4475    2186.6928    31.742119   -31.455516    -703.1484    46.953852    20.204943    20.986574           90           90           90 
  330500    260.08048   -10891.517    -9720.114   -10891.517            0    2362.9884    46.775316    20.126475    21.069628            0            0            0    19835.417    2382.0523    2775.8967    1931.0163    183.63858    483.88297   -428.13476    46.775316    20.126475    21.069628           90           90           90 
  331000    257.43804   -10925.083   -9765.5814   -10925.083            0    2356.1867    47.443336     19.95431    20.929144            0            0            0      19813.6    929.80962     3393.614    2745.1364   -466.86367    635.52006   -295.69078    47.443336     19.95431    20.929144           90           90           90 
  331500    261.13258   -10893.881   -9717.7384   -10893.881            0    2375.7539     47.06974    20.175215    20.952213            0            0            0    19897.104    466.36062    3622.7524    3038.1486   -192.01448   -40.188864   -358.82742     47.06974    20.175215    20.952213           90           90           90 
  332000    258.90487   -10883.942   -9717.8338   -10883.942            0    2045.7532    47.069972    20.131324    21.065597            0            0            0    19961.357    2359.1337    2009.2528    1768.8731   -107.45889   -759.10869   -474.09765    47.069972    20.131324    21.065597           90           90           90 
  332500    265.49749   -10883.363   -9687.5611   -10883.363            0    671.88607    46.888813    20.390733    21.003958            0            0            0    20081.826    945.24435    120.98982    949.42405   -33.358052   -312.57639     514.2104    46.888813    20.390733    21.003958           90           90           90 
  333000    275.94214   -10898.784   -9655.9392   -10898.784            0    2341.8821    46.986835    20.103085    21.014991            0            0            0    19850.348    2414.1311    2293.3776    2318.1377    161.89547    -177.7814    112.51268    46.986835    20.103085    21.014991           90           90           90 
  333500    271.20985    -10872.74   -9651.2096    -10872.74            0    805.81362    47.054134    20.139983    21.180262            0            0            0    20071.887    1135.5225    133.68071    1148.2377    204.16137   -51.075079    4.2470198    47.054134    20.139983    21.180262           90           90           90 
  334000    261.75349   -10860.823   -9681.8847   -10860.823            0    127.65078    47.264113    20.231562    20.973115            0            0            0    20055.056    144.91506    260.55097    -22.51369    536.30814   -255.80239    776.79597    47.264113    20.231562    20.973115           90           90           90 
  334500    260.95939   -10893.449   -9718.0864   -10893.449            0    1900.2197    47.128663    20.049038    21.061691            0            0            0    19900.863     1539.168    2500.9095    1660.5817   -153.80707   -113.00933   -475.05333    47.128663    20.049038    21.061691           90           90           90 
  335000    260.54681   -10944.035   -9770.5315   -10944.035            0    2290.1862    46.677265    20.134885    20.942671            0            0            0    19682.788     1175.301    3240.0228    2455.2347   -193.85718   -331.67836    892.04949    46.677265    20.134885    20.942671           90           90           90 
  335500    272.81021    -10840.79   -9612.0518    -10840.79            0    2200.1703    46.890924    20.262833    20.965965            0            0            0    19920.663    2081.9769    1600.4532    2918.0809    75.077875    16.079948   -243.48435    46.890924    20.262833    20.965965           90           90           90 
  336000     258.1303   -10874.171   -9711.5514   -10874.171            0    1046.1909    46.943809    20.269045    21.082219            0            0            0    20059.862    450.43445    1650.9294    1037.2088    419.12954   -695.47071   -670.30304    46.943809    20.269045    21.082219           90           90           90 
  336500    262.46561   -10837.889   -9655.7423   -10837.889            0    1925.5573    47.275981     20.15852    20.938854            0            0            0    19955.017    1990.5789    1477.1212    2308.9717   -279.49113    466.61815   -116.18966    47.275981     20.15852    20.938854           90           90           90 
  337000    267.80128   -10893.609   -9687.4308   -10893.609            0     3936.037    46.731617    20.101642    21.031837            0            0            0    19756.934     4145.617    3469.0291     4193.465    228.97473   -450.77048    595.73894    46.731617    20.101642    21.031837           90           90           90 
  337500    267.12036   -10847.968   -9644.8566   -10847.968            0    1636.2317    47.341714    20.134787    20.970147            0            0            0    19989.066    2109.2201      448.579    2350.8959   -90.897179   -87.350218   -57.269701    47.341714    20.134787    20.970147           90           90           90 
  338000    260.24572   -10956.979    -9784.831   -10956.979            0    1543.4921    46.934866    20.188878    20.971618            0            0            0    19871.915    566.30312    2405.6321    1658.5412   -28.246205    710.14376    290.00315    46.934866    20.188878    20.971618           90           90           90 
  338500    255.69821   -10875.338   -9723.6723   -10875.338            0    1485.3793    46.969597    20.136917    21.108337            0            0            0    19964.748    2706.6831    717.69936    1031.7556    203.74618   -49.535011   -356.88506    46.969597    20.136917    21.108337           90           90           90 
  339000    268.85369    -10854.59   -9643.6724    -10854.59            0    2584.2352    47.003182     20.17951    20.940367            0            0            0    19861.962    2874.1133    2151.0464    2727.5459    57.222578    141.39005   -404.16429    47.003182     20.17951    20.940367           90           90           90 
  339500    266.01228   -10902.778    -9704.658   -10902.778            0    2875.9845    47.044282    20.108941    20.931859            0            0            0    19801.762     3236.929    2825.4437    2565.5807   -167.64276   -85.575844    532.85555    47.044282    20.108941    20.931859           90           90           90 
  340000    263.28381   -10879.029   -9693.1979   -10879.029            0    1824.0901    46.744019    20.052827    21.299945            0            0            0    19965.497    2193.2676    2359.2384    919.76413    26.804432   -1408.6703   -77.335807    46.744019    20.052827    21.299945           90           90           90 
  340500    270.04387   -10874.659     -9658.38   -10874.659            0    1578.8644    47.414794    20.182909    20.846825            0            0            0    19949.754    1621.1667    1418.1951    1697.2315   -35.467721   -1065.4987    975.02057    47.414794    20.182909    20.846825           90           90           90 
  341000    260.94587    -10885.62   -9710.3183    -10885.62            0    1307.7062    47.021195    20.130799    21.105947            0            0            0    19978.345    1203.7755     1191.265    1528.0782   -542.75841    19.449858    361.93735    47.021195    20.130799    21.105947           90           90           90 
  341500    260.40117   -10879.447    -9706.599   -10879.447            0    1591.9107    46.975242    20.231491    21.016911            0            0            0    19974.035    1350.0848    685.73943    2739.9078   -627.36883   -529.26552   -745.49444    46.975242    20.231491    21.016911           90           90           90 
  342000    265.57698   -10912.315   -9716.1551   -10912.315            0    1779.0232    47.167412    20.112907    20.914572            0            0            0    19841.106    454.47351    2761.6613    2120.9347    112.50039    239.94465    353.38043    47.167412    20.112907    20.914572           90           90           90 
  342500    258.59291    -10894.26   -9729.5564    -10894.26            0    2257.8439    47.165502    19.949677    21.201976            0            0            0    19949.714    2121.0124    3018.0777    1634.4415   -232.61434   -925.09721   -1073.1276    47.165502    19.949677    21.201976           90           90           90 
  343000    265.99934    -10902.75   -9704.6881    -10902.75            0    1111.7426    47.116613    20.258254    20.909469            0            0            0    19958.094    1823.0447    444.00047    1068.1825   -215.92458    510.09062    24.474678    47.116613    20.258254    20.909469           90           90           90 
  343500    255.47298   -10845.551   -9694.9001   -10845.551            0    2075.7651    46.873002    20.162146    21.046201            0            0            0    19889.929    2766.3836      1818.97    1641.9417   -3.0384933   -156.97864    418.13956    46.873002    20.162146    21.046201           90           90           90 
  344000     255.2296    -10868.43    -9718.875    -10868.43            0    2847.6295    46.642841    20.149165    21.086384            0            0            0    19817.286    4050.3279    2113.1383    2379.4223    520.06181    -18.18889    826.04073    46.642841    20.149165    21.086384           90           90           90 
  344500     257.7349   -10891.893   -9731.0543   -10891.893            0     2755.771      47.3418    20.125792      20.9173            0            0            0    19929.821    2003.7229    2478.0438    3785.5462   -61.696898   -1376.2782    190.74414      47.3418    20.125792      20.9173           90           90           90 
  345000    260.31392   -10848.906   -9676.4515   -10848.906            0    2890.8072    47.038068    20.062558    20.987056            0            0            0    19805.568    2488.7526    3600.4111    2583.2579    202.56786    373.05332    123.57776    47.038068    20.062558    20.987056           90           90           90 
  345500    263.84939   -10939.452   -9751.0737   -10939.452            0    1739.4152    47.179842    20.061797      21.0713            0            0            0    19944.247    648.75908    1831.8225     2737.664   -33.382322   -409.19633   -612.88921    47.179842    20.061797      21.0713           90           90           90 
  346000    253.17192   -10896.432   -9756.1449   -10896.432            0    1970.3944    46.954964    20.280601    20.987468            0            0            0    19985.838    2342.1382     1641.076     1927.969   -120.45388   -170.03725    -78.77921    46.954964    20.280601    20.987468           90           90           90 
  346500    262.40004   -10885.038   -9703.1869   -10885.038            0    1801.9128    46.929169    20.127191    21.036485            0            0            0    19870.062    2454.7988    1067.9564    1882.9831    180.85685   -573.68961   -311.90602    46.929169    20.127191    21.036485           90           90           90 
  347000    263.33541   -10889.423   -9703.3593   -10889.423            0     1956.162    46.992379    20.164668    21.035404            0            0            0    19932.849    1349.0679    2844.9283    1674.4898    287.16013   -224.15401    697.66879    46.992379    20.164668    21.035404           90           90           90 
  347500    271.03243   -10928.422   -9707.6904   -10928.422            0    1652.4958    47.521727    20.104981    20.936173            0            0            0     20002.91    910.72816    2245.1767    1801.5824    328.14797    285.74632    688.74667    47.521727    20.104981    20.936173           90           90           90 
  348000    253.12992   -10938.561   -9798.4632   -10938.561            0    3230.4402    46.824742    20.063018    21.060463            0            0            0     19785.16     2379.003    4251.2006     3061.117    194.92027    290.73831    577.73547    46.824742    20.063018    21.060463           90           90           90 
  348500    254.38323   -10920.674   -9774.9307   -10920.674            0    1345.0224    46.643032    20.195401    21.032115            0            0            0    19811.721    1799.3116    411.18777    1824.5679   -61.842109   -135.60603    560.74174    46.643032    20.195401    21.032115           90           90           90 
  349000    266.81875   -10933.862    -9732.109   -10933.862            0    2188.9775    47.293837    20.069207    20.756101            0            0            0    19700.649    1554.3902    2600.8773    2411.6649   -371.06946   -445.76264    96.962962    47.293837    20.069207    20.756101           90           90           90 
  349500    262.69316   -10863.475   -9680.3042   -10863.475            0     2302.019    46.932591    20.100941    21.109234            0            0            0    19914.225    2582.7519    1415.4814    2907.8236    2.5446115    540.55335     190.6608    46.932591    20.100941    21.109234           90           90           90 
  350000    255.48831   -10878.093   -9727.3731   -10878.093            0    1019.4086    47.206809    20.180903    20.975104            0            0            0    19982.479    1604.9541    199.82504    1253.4466    87.168574     400.3829    64.440343    47.206809    20.180903    20.975104           90           90           90 
  350500    265.42896   -10834.463   -9638.9703   -10834.463            0    2879.5062    46.605849    20.254681    21.099203            0            0            0    19917.365     3825.502    1748.8662    3064.1502   -135.73161   -925.48224    174.90699    46.605849    20.254681    21.099203           90           90           90 
  351000    267.64336   -10940.794   -9735.3267   -10940.794            0    3760.2301    46.982867    20.139068    21.027086            0            0            0    19895.643    3378.8962     3470.448    4431.3463   -91.541266     1427.179    104.38839    46.982867    20.139068    21.027086           90           90           90 
  351500    262.04855   -10842.513   -9662.2454   -10842.513            0    980.54201    47.205371    20.151355    21.020779            0            0            0    19996.062   -407.93047    1917.0121    1432.5444    55.642196    552.12657    282.62021    47.205371    20.151355    21.020779           90           90           90 
  352000    270.36361   -10906.328    -9688.609   -10906.328            0    2308.8904     46.79183    20.091642    21.034609            0            0            0    19775.155    3262.0732     1404.752     2259.846   -444.57688   -330.96349    775.51262     46.79183    20.091642    21.034609           90           90           90 
  352500    267.29706   -10911.652   -9707.7452   -10911.652            0    2299.3115    46.991237    20.211582    20.828612            0            0            0    19782.333    2664.1971    1399.5618    2834.1756     488.7125    320.17028   -57.766916    46.991237    20.211582    20.828612           90           90           90 
  353000    262.14829   -10958.675   -9777.9578   -10958.675            0    1683.1933    46.987967    19.987458    21.147439            0            0            0     19861.04    1478.8101    1452.2734    2118.4963     -80.3308  -0.84116029    697.71025    46.987967    19.987458    21.147439           90           90           90 
  353500    267.92745   -10949.901    -9743.155   -10949.901            0    1573.9156    47.147974    20.145399    20.883817            0            0            0    19835.758    1307.7445    1084.6324    2329.3698    96.066999    25.397115    935.88758    47.147974    20.145399    20.883817           90           90           90 
  354000    268.82674    -10863.88   -9653.0837    -10863.88            0    2138.5559    47.301886    19.978426    21.042621            0            0            0     19885.64    1332.9575    3639.7368    1442.9735     453.5007   -516.88004    725.78376    47.301886    19.978426    21.042621           90           90           90 
  354500    271.26311   -10894.995   -9673.2247   -10894.995            0    1221.9816    46.694319    20.271869    21.031445            0            0            0    19907.969    1079.4862    2179.3534    407.10517    220.51501   -15.974525   -74.761241    46.694319    20.271869    21.031445           90           90           90 
  355000    267.86764   -10892.896    -9686.419   -10892.896            0    3036.9048    47.092976    20.043518    20.971656            0            0            0    19795.333    3067.6519    2830.4775    3212.5851    338.23234   -102.59355   -504.41963    47.092976    20.043518    20.971656           90           90           90 
  355500    261.28689   -10933.001   -9756.1637   -10933.001            0    1507.4135    46.529673     20.27891    21.066734            0            0            0    19877.961    1360.2422    990.14676    2171.8514    387.50269    632.31405    573.65583    46.529673     20.27891    21.066734           90           90           90 
  356000    256.65185   -10871.867   -9715.9065   -10871.867            0    1118.3969    47.067441    20.170706    21.043737            0            0            0    19978.578     932.0788    1224.0649    1199.0471   -370.06629    409.21671    1491.6189    47.067441    20.170706    21.043737           90           90           90 
  356500    270.32744   -10856.486   -9638.9296   -10856.486            0    1398.1551    47.107161    20.226815     20.92807            0            0            0    19940.847    1974.4917    795.81277    1424.1607    38.937538     139.6079     305.8683    47.107161    20.226815     20.92807           90           90           90 
  357000    266.96233   -10911.117   -9708.7173   -10911.117            0    1636.9762    46.858925     20.07368    21.188632            0            0            0    19930.685    1345.8255    2581.2518    983.85133    3.6973306   -36.488025   -1662.3577    46.858925     20.07368    21.188632           90           90           90 
  357500    267.11797   -10883.128    -9680.028   -10883.128            0    1981.0385    47.194102    20.106809    20.853933            0            0            0    19788.772     1510.384     1607.185    2825.5465   -252.08518    1135.9583    127.88566    47.194102    20.106809    20.853933           90           90           90 
  358000    265.27101     -10932.9   -9738.1184     -10932.9            0    2283.9663    46.832446     20.11733    21.049703            0            0            0    19831.847    2389.2751    2148.4998     2314.124   -137.24939    169.07545    73.715457    46.832446     20.11733    21.049703           90           90           90 
  358500    258.34639   -10877.922   -9714.3285   -10877.922            0    1457.9406    46.943318    20.171115    21.035988            0            0            0    19918.957    2701.6541    674.95271    997.21498   -564.17569    164.18444    369.46505    46.943318    20.171115    21.035988           90           90           90 
  359000    273.06003     -10924.2   -9694.3366     -10924.2            0    2560.1264     47.22493    19.973913     20.98914            0            0            0    19798.356    1858.5387    2981.7643    2840.0762   -592.94977    357.76184    1037.2955     47.22493    19.973913     20.98914           90           90           90 
  359500    265.83204   -10855.694   -9658.3852   -10855.694            0     1793.238    47.024529     20.26925     21.01327            0            0            0    20028.839    1966.0856    1710.4195    1703.2088    163.25475   -279.34943    338.05513    47.024529     20.26925     21.01327           90           90           90 
  360000    260.91537   -10926.097   -9750.9329   -10926.097            0    1525.4187    46.981593    20.187333    21.014374            0            0            0    19930.727     1142.503    1828.3342    1605.4189   -47.037818   -494.22655   -148.89314    46.981593    20.187333    21.014374           90           90           90 
  360500    266.04304   -10937.453   -9739.1943   -10937.453            0    2486.6186    46.971058    20.065988    21.118942            0            0            0     19905.04    2176.8309    2787.5977    2495.4272   -210.85406   -301.00864    457.49007    46.971058    20.065988    21.118942           90           90           90 
  361000    262.54404   -10854.281   -9671.7817   -10854.281            0    2160.2626     47.32028     20.07815    21.045432            0            0            0    19995.342    2394.0468    2303.1243    1783.6167    82.082895    396.94911    835.49948     47.32028     20.07815    21.045432           90           90           90 
  361500    266.75121   -10903.484   -9702.0351   -10903.484            0    2198.2295    47.008527    20.106989    21.092237            0            0            0    19936.381    1700.2869    2186.5417    2707.8599    72.544059    479.25164    641.51381    47.008527    20.106989    21.092237           90           90           90 
  362000    266.85572   -10937.534   -9735.6147   -10937.534            0    1000.0741    46.917362     20.26844    21.008815            0            0            0    19978.159    1026.2503    494.09001     1479.882   -33.771466    582.92587    353.05941    46.917362     20.26844    21.008815           90           90           90 
  362500    268.41585   -10846.466     -9637.52   -10846.466            0    870.47905    47.091605    20.162786    21.060021            0            0            0    19996.447    395.38181    1792.1854    423.86997    -97.08047    6.6235689   -158.74581    47.091605    20.162786    21.060021           90           90           90 
  363000     272.4395   -10900.361   -9673.2927   -10900.361            0    3823.6011    46.867176    20.021602    21.079974            0            0            0    19780.519    4900.3487    3393.6911    3176.7636    196.96657   -106.42157    40.994122    46.867176    20.021602    21.079974           90           90           90 
  363500    261.74405   -10857.527    -9678.631   -10857.527            0    1507.7232    47.345283    20.253206    20.840739            0            0            0    19984.054    1625.3657    420.20674    2477.5973    549.13395    170.27689   -281.47997    47.345283    20.253206    20.840739           90           90           90 
  364000    263.20943   -10871.654   -9686.1578   -10871.654            0    1183.5399    46.981429    20.101868    21.170767            0            0            0    19993.979    1619.8594    581.91219    1348.8481   -162.28429   -211.22611    665.33872    46.981429    20.101868    21.170767           90           90           90 
  364500    264.37494    -10923.48   -9732.7345    -10923.48            0    2505.5019    46.760428    20.235965    20.944443            0            0            0     19818.52      2724.87       2374.9    2416.7357   -104.88775   -292.17649   -506.12942    46.760428    20.235965    20.944443           90           90           90 
  365000    276.91481    -10941.97   -9694.7446    -10941.97            0    1378.5077    47.008248    20.137749    21.038986            0            0            0    19916.351    1041.8745    1856.8975    1236.7512   -403.60491   -124.04326    257.87792    47.008248    20.137749    21.038986           90           90           90 
  365500    258.94313   -10874.214   -9707.9328   -10874.214            0    2645.5059    47.410382     20.04415    20.990484            0            0            0    19947.274    2111.7857    2857.0987    2967.6335   -525.07932    214.20141   -610.47936    47.410382     20.04415    20.990484           90           90           90 
  366000       269.57    -10877.71   -9663.5654    -10877.71            0    2263.9654    47.287296     20.04136    21.022703            0            0            0    19923.252    2610.5085     1542.574    2638.8138   -188.64787   -126.39244   -714.00687    47.287296     20.04136    21.022703           90           90           90 
  366500      255.384   -10877.162   -9726.9118   -10877.162            0    2016.9255    46.959642    20.156681    21.000762            0            0            0    19878.283    1647.6941    2407.3102    1995.7723   -150.54815   -495.76386   -515.91666    46.959642    20.156681    21.000762           90           90           90 
  367000    260.84489   -10935.735   -9760.8881   -10935.735            0    2199.8404    47.008506     19.96468    21.062021            0            0            0    19766.912    2152.6013    2691.6037    1755.3162     37.83877    431.38794    348.27922    47.008506     19.96468    21.062021           90           90           90 
  367500    264.04571   -10894.878   -9705.6154   -10894.878            0     2423.253     47.28342    20.048906    21.075106            0            0            0    19978.797    2509.6569    2211.1183    2548.9837    476.11043   -107.55687    774.85909     47.28342    20.048906    21.075106           90           90           90 
  368000    259.10294   -10852.396   -9685.3952   -10852.396            0    1519.3035    47.291193    20.131702    20.949626            0            0            0    19945.137    1633.4202    1304.2362    1620.2542   -213.05521    376.43098   -135.27887    47.291193    20.131702    20.949626           90           90           90 
  368500    260.43165   -10892.142    -9719.157   -10892.142            0    1747.9367    46.751968    20.244478    21.095512            0            0            0    19966.253    2065.6195    1335.5082    1842.6823    242.29336    237.33657    906.39177    46.751968    20.244478    21.095512           90           90           90 
  369000    269.94676   -10894.243   -9678.4017   -10894.243            0     1869.531    47.124896    20.158918    21.032062            0            0            0    19980.184    1796.0234    1608.4199    2204.1497   -320.92724   -151.89978   -189.47796    47.124896    20.158918    21.032062           90           90           90 
  369500    270.83216   -10882.413   -9662.5837   -10882.413            0    3209.1588    46.886865     20.26722    20.876345            0            0            0    19838.089    2529.3286    3547.5666    3550.5813    480.28187   -12.195045    271.01167    46.886865     20.26722    20.876345           90           90           90 
  370000    272.65003   -10916.936   -9688.9194   -10916.936            0    1729.3856    46.850166    20.138416    21.132159            0            0            0    19937.941    2620.0839    1364.5708     1203.502   -353.59522   -144.83159    124.07356    46.850166    20.138416    21.132159           90           90           90 
  370500    264.47611   -10893.196   -9701.9947   -10893.196            0    1987.3639     46.98049     20.17807     20.97932            0            0            0    19887.884    1957.9631    1561.5112    2442.6174    175.50358    185.80085    727.60431     46.98049     20.17807     20.97932           90           90           90 
  371000    259.95398   -10923.659   -9752.8257   -10923.659            0    1558.5603    47.273962    20.028572    21.016168            0            0            0    19898.737    644.74693    2623.2747    1407.6592   -255.48306   -525.08105    1278.3201    47.273962    20.028572    21.016168           90           90           90 
  371500     255.3398   -10898.301     -9748.25   -10898.301            0    1046.2208    46.881366    20.192599    21.124655            0            0            0    19997.794    1777.7363    496.44684    864.47937   -107.50788    119.44544    121.78202    46.881366    20.192599    21.124655           90           90           90 
  372000    261.28646   -10896.623   -9719.7881   -10896.623            0    1931.3387    47.290011    20.099848    20.922802            0            0            0    19887.584    2138.9144    1359.9978    2295.1038    85.929628      9.08319    482.44738    47.290011    20.099848    20.922802           90           90           90 
  372500    264.80827   -10917.854   -9725.1565   -10917.854            0    2075.6245     46.85031    20.125479    21.156614            0            0            0    19948.253    1562.7257    3143.5838    1520.5641    31.124916    497.84706    658.16828     46.85031    20.125479    21.156614           90           90           90 
  373000    258.20449   -10941.678   -9778.7239   -10941.678            0    1911.3324    46.827989    20.243127    20.947668            0            0            0    19857.235    2427.4664    1110.3259    2196.2048    31.381553    624.18831    45.787657    46.827989    20.243127    20.947668           90           90           90 
  373500     266.3927   -10875.104   -9675.2697   -10875.104            0    2363.4063    46.879274    20.066808    21.044588            0            0            0     19797.01      2185.58    2718.9935    2185.6453   -260.06861   -247.67852   -520.27064    46.879274    20.066808    21.044588           90           90           90 
  374000    263.84178    -10849.86   -9661.5153    -10849.86            0    2632.8792    47.003711    20.075275    21.016145            0            0            0    19831.095    1146.2664    3997.8777    2754.4933   -522.91289    22.184197    72.958407    47.003711    20.075275    21.016145           90           90           90 
  374500     270.4197   -10884.394   -9666.4225   -10884.394            0    2524.1211     47.18397    20.013405    20.965493            0            0            0    19797.964    1334.2052    3241.4179    2996.7403   -493.76217   -347.15784    523.17031     47.18397    20.013405    20.965493           90           90           90 
  375000    266.36311   -10949.188   -9749.4878   -10949.188            0    1986.4892    46.979972     20.08107    21.079736            0            0            0    19886.794     1354.908    2137.4811    2467.0786   -365.22564   -106.86202    1019.4453    46.979972     20.08107    21.079736           90           90           90 
  375500    256.75927   -10890.767   -9734.3219   -10890.767            0    1754.6121    47.220714    20.193235    20.910416            0            0            0    19938.897    1323.4075    2270.5295    1669.8994   -248.00448    153.82717    834.53978    47.220714    20.193235    20.910416           90           90           90 
  376000    264.02114    -10870.17    -9681.018    -10870.17            0    1263.7096    46.714677    20.173037    21.182085            0            0            0    19961.508    2104.8271    866.02416    820.27755    180.54078   -393.10449   -137.78369    46.714677    20.173037    21.182085           90           90           90 
  376500    266.20927   -10879.161   -9680.1535   -10879.161            0    1387.8555    47.142654    20.145437     21.05735            0            0            0    19998.362    362.25563    2245.1938    1556.1172    77.163924    53.811331   -255.59677    47.142654    20.145437     21.05735           90           90           90 
  377000    262.08654   -10949.159     -9768.72   -10949.159            0    2815.1272     46.89962    20.146463    20.936966            0            0            0    19782.532    3146.9072    2800.2801    2498.1942    317.41612   -538.61812   -513.77971     46.89962    20.146463    20.936966           90           90           90 
  377500    264.17852   -10890.158   -9700.2966   -10890.158            0     3063.013    46.712087    20.078813    21.060891            0            0            0      19753.5    2675.7077    3964.7896    2548.5417   -62.727371    92.486643    709.22054    46.712087    20.078813    21.060891           90           90           90 
  378000    264.25776   -10903.097   -9712.8793   -10903.097            0    1138.9555    47.164398    20.114858    20.989528            0            0            0    19912.874     62.45783    1858.7227    1495.6859    55.158419     956.5233   -53.388995    47.164398    20.114858    20.989528           90           90           90 
  378500    263.10889   -10883.357   -9698.3133   -10883.357            0    2522.9816    47.042447    20.073993    20.980861            0            0            0    19812.852      2588.98    2869.8786     2110.086   -87.477818    154.94351    41.099731    47.042447    20.073993    20.980861           90           90           90 
  379000    258.40377   -10905.331   -9741.4791   -10905.331            0    2467.3125    46.750811    20.121019    21.129934            0            0            0    19876.379    2758.6545    2551.6632    2091.6198    23.003662    139.88318    996.30937    46.750811    20.121019    21.129934           90           90           90 
  379500    266.38453   -10956.174   -9756.3767   -10956.174            0    3208.7098    46.714752    20.251034    20.933504            0            0            0    19803.556    4857.4758    1718.8506    3049.8031   -504.39207    232.15323   -524.36927    46.714752    20.251034    20.933504           90           90           90 
  380000     250.0268   -10982.686   -9856.5642   -10982.686            0    878.79847    47.164279    20.102023    21.108951            0            0            0    20013.342    775.64884    869.98279    990.76377      219.784    474.84769    585.00798    47.164279    20.102023    21.108951           90           90           90 
  380500    275.46048   -10858.661   -9617.9857   -10858.661            0    2521.6161    47.061018    20.109721    20.998335            0            0            0    19872.487    2904.7224    2439.4169    2220.7089   -110.93155   -189.86033   -512.51426    47.061018    20.109721    20.998335           90           90           90 
  381000    264.09815   -10869.476   -9679.9771   -10869.476            0    2572.6765    46.975249    19.978384    21.098634            0            0            0    19800.847    2208.1994    2793.6988    2716.1315    357.92548   -329.80542    481.30642    46.975249    19.978384    21.098634           90           90           90 
  381500    281.58276   -10899.131   -9630.8811   -10899.131            0    2664.8814    47.164614    20.095594    20.938296            0            0            0    19845.336    1911.2794    2741.4255    3341.9391   -366.53777   -131.54142   -875.95686    47.164614    20.095594    20.938296           90           90           90 
  382000    263.98171   -10900.531   -9711.5563   -10900.531            0    1996.9681    47.193278    20.126435    21.043926            0            0            0    19988.204    2561.6535    1640.6945    1788.5564   -696.03846   -511.89561    629.78844    47.193278    20.126435    21.043926           90           90           90 
  382500    264.00799   -10884.263   -9695.1704   -10884.263            0    2412.3935    46.549538    20.231527    21.088386            0            0            0    19860.372    2462.4609    2564.8471    2209.8725    -546.0859   -692.02208    586.54121    46.549538    20.231527    21.088386           90           90           90 
  383000    271.58869   -10916.805   -9693.5687   -10916.805            0    940.97338    47.235418    20.226553    20.929474            0            0            0    19996.222     1242.254    301.36116     1279.305    203.17725    266.83098    56.269215    47.235418    20.226553    20.929474           90           90           90 
  383500    270.37475   -10890.737   -9672.9679   -10890.737            0    1266.3538    47.131554     20.12599    21.035489            0            0            0    19953.616    1060.8558    2085.4633    652.74241    74.592552   -363.14922    566.48597    47.131554     20.12599    21.035489           90           90           90 
  384000    250.90489   -10907.014   -9776.9374   -10907.014            0     2112.058    47.215234    20.040407    21.063967            0            0            0    19930.989    612.25549    4642.2064    1081.7121   -261.91939    949.32561    198.74491    47.215234    20.040407    21.063967           90           90           90 
  384500    266.62705   -10953.243   -9752.3533   -10953.243            0    2324.3774    47.206821    20.053867    20.858598            0            0            0    19746.403    1958.7294    2349.5684    2664.8344   -184.16789   -542.86796   -676.76776    47.206821    20.053867    20.858598           90           90           90 
  385000    270.13027   -10908.286    -9691.618   -10908.286            0    2619.1129    46.781351    20.119152    21.094202            0            0            0    19853.887    2436.7889    2244.6819    3175.8677   -281.14216   -883.05763    296.11951    46.781351    20.119152    21.094202           90           90           90 
  385500    266.59605   -10909.561   -9708.8114   -10909.561            0    1831.1971    46.994122     20.17499    20.909609            0            0            0    19824.524     1275.182    1994.7517    2223.6575   -791.10337   -640.54146    259.61207    46.994122     20.17499    20.909609           90           90           90 
  386000    264.98037   -10901.378   -9707.9053   -10901.378            0    2512.3097    47.034629     20.09178    20.953836            0            0            0    19801.571    2583.8413    2625.8636    2327.2242    88.348187   -181.33823    222.73733    47.034629     20.09178    20.953836           90           90           90 
  386500    265.94977    -10902.31   -9704.4708    -10902.31            0    2561.8635    46.928235    20.059827     21.07921            0            0            0    19843.383    2354.7843    2581.2341     2749.572    262.15169    350.52096    165.42148    46.928235    20.059827     21.07921           90           90           90 
  387000    266.55037   -10916.472   -9715.9284   -10916.472            0    2863.9986    47.412409    20.092805    20.847453            0            0            0     19860.29    2470.1286    2914.2631     3207.604   -93.156873     104.2726    673.28109    47.412409    20.092805    20.847453           90           90           90 
  387500    260.00662   -10924.195   -9753.1238   -10924.195            0    2350.8096    46.812218    20.101987    21.183908            0            0            0    19934.452    3078.8768    2052.0355    1921.5165   -221.28385    -796.8005   -441.21178    46.812218    20.101987    21.183908           90           90           90 
  388000     267.4567   -10921.274   -9716.6484   -10921.274            0    841.44083    47.038437    20.254843    21.010282            0            0            0    20017.676    1556.8962    763.44604    203.98021   -255.62678   -496.32295   -258.94505    47.038437    20.254843    21.010282           90           90           90 
  388500    260.55131   -10912.519   -9738.9945   -10912.519            0    3405.7513    46.952381    19.988356    20.953791            0            0            0    19665.153    3237.3759    3491.2476    3488.6305   -20.890125   -894.16307   -71.457051    46.952381    19.988356    20.953791           90           90           90 
  389000    269.17487   -10925.226   -9712.8608   -10925.226            0    1507.7688    47.097075     20.13974    20.993075            0            0            0    19912.411    651.28226       2466.3    1405.7241   -58.924237   -88.595371    265.68431    47.097075     20.13974    20.993075           90           90           90 
  389500    260.95433   -10916.862   -9741.5224   -10916.862            0    1248.7038    47.034402    20.172597    21.097634            0            0            0    20017.563    1608.7365    360.12806    1777.2469   -244.33342   -717.46071   -316.69496    47.034402    20.172597    21.097634           90           90           90 
  390000    265.77436   -10935.871   -9738.8218   -10935.871            0    1939.0326    47.009017    20.244849    20.931023            0            0            0    19919.854    1844.2804     2015.476    1957.3413    101.60636    86.129111    284.12275    47.009017    20.244849    20.931023           90           90           90 
  390500    271.65986   -10902.979   -9679.4223   -10902.979            0    1698.8268    46.755776    20.192629    21.125749            0            0            0    19945.286    2315.3607    1756.0172    1025.1024    414.60668    527.00388   -322.43034    46.755776    20.192629    21.125749           90           90           90 
  391000    268.23449   -10911.701   -9703.5722   -10911.701            0    1536.1544    47.307194    20.123302    20.974268            0            0            0     19967.02   -185.39685    2266.3528    2527.5073    7.4649076   -831.74184   -826.95907    47.307194    20.123302    20.974268           90           90           90 
  391500    271.79402   -10902.846   -9678.6849   -10902.846            0    1511.4342    46.741224    20.221357     21.04305            0            0            0    19889.281    2312.7891    702.66289    1518.8506   -438.23953   -466.34504    635.93181    46.741224    20.221357     21.04305           90           90           90 
  392000    257.20664   -10913.159   -9754.6995   -10913.159            0    2257.2716    46.662024    20.150709    21.012251            0            0            0    19757.249    4284.1638    500.91325    1986.7378    131.65599   -28.400714   -420.74586    46.662024    20.150709    21.012251           90           90           90 
  392500    265.48731   -10882.744   -9686.9878   -10882.744            0    4043.9464    47.012804    20.125385    20.909802            0            0            0    19783.825    3869.0568    3344.1256    4918.6567    145.76489   -1037.1076    312.76949    47.012804    20.125385    20.909802           90           90           90 
  393000    274.46182   -10880.634   -9644.4569   -10880.634            0    1302.8851    47.268072    20.076416    21.115841            0            0            0    20038.373   -329.03029    2883.5183    1354.1672    -85.21145   -334.65642    452.20385    47.268072    20.076416    21.115841           90           90           90 
  393500    263.81757   -10922.763   -9734.5273   -10922.763            0    2085.1714    47.096367    20.172261    20.914224            0            0            0    19869.354    848.43808    2574.9836    2832.0925    194.54377    682.18563   -383.11365    47.096367    20.172261    20.914224           90           90           90 
  394000    265.41103   -10959.184   -9763.7717   -10959.184            0     1928.704    46.664823    20.151643    21.086185            0            0            0    19828.876    2089.0961    2040.5942    1656.4216     150.0964   -167.67637    -256.9031    46.664823    20.151643    21.086185           90           90           90 
  394500    264.74278   -10903.983   -9711.5807   -10903.983            0    1990.4854    46.937364    20.205357    20.997216            0            0            0     19913.47    2312.7304    1427.5318    2231.1939   -341.23377    370.48671   -254.41703    46.937364    20.205357    20.997216           90           90           90 
  395000    271.71106   -10938.798   -9715.0103   -10938.798            0    1457.6749    47.083863    20.068231    21.040992            0            0            0    19881.419     1054.593     2028.514    1289.9176   -88.335147   -352.98246    390.13558    47.083863    20.068231    21.040992           90           90           90 
  395500    258.04755   -10983.013   -9820.7657   -10983.013            0    1589.4525    46.987483    20.083163    21.194386            0            0            0    20000.237     2134.082    1823.6294    810.64628     176.7426   -90.093559     75.63604    46.987483    20.083163    21.194386           90           90           90 
  396000    267.40018   -10940.923   -9736.5518   -10940.923            0    1998.2203    46.911007     20.27009    20.812148            0            0            0    19790.071    1996.4732    1171.6989    2826.4887    56.175518    281.56874    156.36995    46.911007     20.27009    20.812148           90           90           90 
  396500    269.64883   -10856.949   -9642.4495   -10856.949            0    1678.3196    47.120874    20.005484    21.198147            0            0            0    19982.982    1770.9462    2027.5113    1236.5012   -26.007121    179.13502    424.91694    47.120874    20.005484    21.198147           90           90           90 
  397000    257.83614   -10947.708   -9786.4133   -10947.708            0    1219.9055    47.064635    20.198801    20.969325            0            0            0    19934.472    1277.1587    993.48936    1389.0685    15.135709    38.022471   -95.044307    47.064635    20.198801    20.969325           90           90           90 
  397500    267.99054   -10909.304   -9702.2738   -10909.304            0    1152.6652    46.942591    20.245699    21.004969            0            0            0    19962.819    1377.5528    828.26052    1252.1822      444.416    523.40918    380.90317    46.942591    20.245699    21.004969           90           90           90 
  398000     267.2177   -10904.741   -9701.1918   -10904.741            0    992.94863    47.069813    20.022167    21.195528            0            0            0    19975.506    1069.8303     1723.824    185.19159   -387.67114   -311.46906     619.0946    47.069813    20.022167    21.195528           90           90           90 
  398500    269.73931   -10857.407   -9642.5001   -10857.407            0    2373.7813    47.088214    20.190516    20.899715            0            0            0    19870.098    2411.8175    1847.1344     2862.392    -37.81785    180.61449    619.52096    47.088214    20.190516    20.899715           90           90           90 
  399000    260.72157   -10935.357   -9761.0665   -10935.357            0     1183.544    47.101672    20.070491    21.099597            0            0            0    19946.581    1058.8206    1963.1225    528.68893   -263.21707    126.56393   -405.88793    47.101672    20.070491    21.099597           90           90           90 
  399500    259.47971   -10908.987   -9740.2899   -10908.987            0    2383.5693    46.749414    20.349682    20.828093            0            0            0    19814.509    2783.5859    1005.7814    3361.3405   -137.69971    192.30731    632.76559    46.749414    20.349682    20.828093           90           90           90 
  400000    271.39285   -10954.243   -9731.8881   -10954.243            0    2183.2116    46.978702    20.054304    21.015691            0            0            0    19799.412    1937.7748    2598.5949    2013.2651   -139.55739    530.84915    253.11057    46.978702    20.054304    21.015691           90           90           90 
  400500    263.39836   -10880.511   -9694.1634   -10880.511            0    2321.4397    46.793671    20.119374    21.052485            0            0            0    19820.059    2860.1083    1948.5009    2155.7101   -192.23801     904.0701   -331.64373    46.793671    20.119374    21.052485           90           90           90 
  401000    278.66515   -10904.371   -9649.2619   -10904.371            0    2810.3803    47.115313    20.085619    20.891852            0            0            0    19770.799    2383.7345    2497.0422    3550.3644    124.67513   -70.020093   -183.40098    47.115313    20.085619    20.891852           90           90           90 
  401500    269.65771   -10876.058    -9661.519   -10876.058            0    3004.1827    46.743422    20.278745    20.943254            0            0            0    19852.068    4761.1307    841.83684    3409.5806   -159.75653     188.9116    338.53714    46.743422    20.278745    20.943254           90           90           90 
  402000    265.10903   -10877.125   -9683.0731   -10877.125            0    1992.5609    47.232116    20.031753    21.031584            0            0            0    19898.867    996.13073    3459.9957    1521.5563   -218.99121   -140.88435    27.337729    47.232116    20.031753    21.031584           90           90           90 
  402500    259.64123   -10877.241   -9707.8157   -10877.241            0    3311.3613    46.926118     20.12388    20.941486            0            0            0     19775.79    3354.5458    2603.8585    3975.6796    415.77053    58.146926    765.91061    46.926118     20.12388    20.941486           90           90           90 
  403000    261.45222   -10888.337   -9710.7553   -10888.337            0    1435.4772    47.094717    20.152208    21.044788            0            0            0     19972.82    1720.0734    712.12292    1874.2352    805.67169    962.16701    430.31734    47.094717    20.152208    21.044788           90           90           90 
  403500    267.78882   -10926.395   -9720.2735   -10926.395            0    2626.6227    46.747726    20.216399    21.064215            0            0            0    19907.172      3434.54    1616.4974    2828.8306    163.16903    -370.0029    33.855162    46.747726    20.216399    21.064215           90           90           90 
  404000    257.84573   -10938.588   -9777.2501   -10938.588            0    1407.6598    46.968693    20.165702    20.911568            0            0            0     19806.53    870.60359    1239.4064    2112.9695   -11.397252   -168.69926   -321.54216    46.968693    20.165702    20.911568           90           90           90 
  404500    272.38845   -10942.978   -9716.1398   -10942.978            0    1884.2047    47.143241    20.037895    21.091218            0            0            0    19923.846    649.49954    3787.0363    1216.0781   -357.93991    936.83828    1330.1945    47.143241    20.037895    21.091218           90           90           90 
  405000    262.51118   -10939.725    -9757.374   -10939.725            0    928.23621    47.130212    20.197654    21.060063            0            0            0     20047.49    1256.8862    1288.1089    239.71349    167.70834    366.15703    309.28893    47.130212    20.197654    21.060063           90           90           90 
  405500    263.20584   -10835.363    -9649.883   -10835.363            0    2429.0731    46.874764    20.215435    21.029295            0            0            0    19927.229    3807.0829    951.53071    2528.6058   -378.49241   -278.93045   -208.46486    46.874764    20.215435    21.029295           90           90           90 
  406000    275.30542   -10927.773   -9687.7965   -10927.773            0    2180.7518    47.054984    20.317348    20.940489            0            0            0    20019.788    3851.5119    41.200856    2649.5427   -218.63268   -328.54318    434.64997    47.054984    20.317348    20.940489           90           90           90 
  406500    259.59081   -10896.865   -9727.6673   -10896.865            0    2215.2504    46.781182    20.235878    20.998197            0            0            0    19878.117    2658.9243    1700.6011     2286.226      185.496    466.51202    189.56478    46.781182    20.235878    20.998197           90           90           90 
  407000    263.11329    -10889.07   -9704.0067    -10889.07            0    2394.0746    46.910253    20.140507    21.070284            0            0            0    19907.126    1955.0195    3228.3603    1998.8439     157.0008    311.86459    889.95087    46.910253    20.140507    21.070284           90           90           90 
  407500    265.87455    -10935.33     -9737.83    -10935.33            0    1757.4255    47.211691    20.199349    20.871345            0            0            0    19903.862     1332.664    1403.7147    2535.8977    133.79784    10.826563    809.82863    47.211691    20.199349    20.871345           90           90           90 
  408000    271.04225   -10914.646   -9693.8703   -10914.646            0    1597.4161    47.237382    19.992463    21.275778            0            0            0    20092.667    800.35909    2989.9577    1001.9317    412.29109   -532.84674    493.92691    47.237382    19.992463    21.275778           90           90           90 
  408500    264.94346   -10879.226   -9685.9195   -10879.226            0    2238.5466    46.841269    20.211619    20.975624            0            0            0    19858.418    2142.8961    2597.1526     1975.591   -203.39439    552.38731    725.29941    46.841269    20.211619    20.975624           90           90           90 
  409000    265.50136   -10880.378   -9684.5586   -10880.378            0     1763.966    47.170334    20.115298    21.046923            0            0            0    19970.274    1176.2578    2033.8808    2081.7595   -559.72315      -925.06   -366.41054    47.170334    20.115298    21.046923           90           90           90 
  409500    257.87994   -10902.945   -9741.4527   -10902.945            0     356.3124    47.100279    20.162793    21.055572            0            0            0    19995.912    109.59443    290.86622    668.47655   -42.201933   -139.58806    351.63349    47.100279    20.162793    21.055572           90           90           90 
  410000    260.45273   -10909.167   -9736.0864   -10909.167            0    2891.3853    47.181154    20.102375    20.930807            0            0            0    19851.892    2767.0446    2534.1753    3372.9361    -277.6752    140.61495    20.489638    47.181154    20.102375    20.930807           90           90           90 
  410500    275.33958   -10903.643    -9663.512   -10903.643            0    1928.3593    46.828156    20.175049    21.089992            0            0            0    19924.988    3148.2889    619.05251    2017.7366   -60.463432   -55.933004   -620.40776    46.828156    20.175049    21.089992           90           90           90 
  411000    271.21372   -10841.556   -9620.0085   -10841.556            0     1617.425    46.921881    20.278958    21.005076            0            0            0    19986.894    1415.3567    1178.7277    2258.1907   -252.62678    -1419.575   -338.38519    46.921881    20.278958    21.005076           90           90           90 
  411500    262.67912   -10947.131   -9764.0227   -10947.131            0    1369.5357    46.776259    20.253408    21.056957            0            0            0    19948.912    1275.1758    1427.8863     1405.545   -186.23785   -222.91719   -134.32639    46.776259    20.253408    21.056957           90           90           90 
  412000    272.97812   -10933.068   -9703.5731   -10933.068            0    1935.3937    47.047495    20.161471    20.976158            0            0            0    19896.866    791.94275    2057.4183    2956.8202    173.14134  -0.35997598    296.31289    47.047495    20.161471    20.976158           90           90           90 
  412500    266.77473   -10880.175   -9678.6206   -10880.175            0    1010.2776    47.194911    20.132913    21.063881            0            0            0     20014.29    1308.6097    598.75295    1123.4703    10.807623    844.68147     495.8609    47.194911    20.132913    21.063881           90           90           90 
  413000    267.82004    -10951.17   -9744.9073    -10951.17            0    1544.9838    47.268084    20.093565    21.008176            0            0            0    19953.236    2183.6096    1474.3985    976.94342    157.13214     188.3708   -224.11575    47.268084    20.093565    21.008176           90           90           90 
  413500    269.86679   -10910.552   -9695.0713   -10910.552            0    1305.1985    47.068645    20.263725    20.983237            0            0            0    20013.519    949.80148    876.09135    2089.7025   -618.45912   -1114.7746   -103.76643    47.068645    20.263725    20.983237           90           90           90 
  414000    263.33772    -10913.52   -9727.4459    -10913.52            0    1895.3648    46.850921    20.185225    21.149314            0            0            0     20000.83    2674.8862    1465.2505    1545.9578   -277.95011    630.69185    1050.9597    46.850921    20.185225    21.149314           90           90           90 
  414500    255.41924    -10898.56   -9748.1504    -10898.56            0    2963.6267     46.96347    20.248929    20.780491            0            0            0    19761.415    3138.9707    2685.5665    3066.3429    144.69609   -636.27957    560.89267     46.96347    20.248929    20.780491           90           90           90 
  415000    259.83164   -10893.122   -9722.8397   -10893.122            0    1958.0409    46.810425    20.075461    21.228499            0            0            0    19949.289    1579.5683    3144.8805    1149.6741   -472.86607   0.34296866    1014.1551    46.810425    20.075461    21.228499           90           90           90 
  415500    261.99772    -10916.77   -9736.7312    -10916.77            0    1264.1153     46.99994     20.18709     20.94056            0            0            0    19868.236     1224.008    889.64508    1678.6928   -476.31412    31.156885   -34.155261     46.99994     20.18709     20.94056           90           90           90 
  416000    263.83544   -10926.422   -9738.1062   -10926.422            0    2139.7168    47.199073    20.174324    20.992508            0            0            0    19989.264    2468.9592    1915.9236    2034.2676   -299.18293   -276.03969    327.68942    47.199073    20.174324    20.992508           90           90           90 
  416500    261.89207   -10903.915    -9724.352   -10903.915            0    350.09746    46.916815    20.155273    21.182826            0            0            0    20030.929    669.24261    619.72948   -238.67972   -597.58983    1111.0958    147.16725    46.916815    20.155273    21.182826           90           90           90 
  417000    264.44878   -10921.129    -9730.051   -10921.129            0    1848.5625    47.274435    20.125172    20.917093            0            0            0     19900.65    1805.4005    1301.6539    2438.6329   -273.20264   -555.21131   -766.07244    47.274435    20.125172    20.917093           90           90           90 
  417500    269.81474   -10925.031   -9709.7848   -10925.031            0    2188.4735    47.138147    20.102296    21.035954            0            0            0    19933.354    1562.8355    1770.1386    3232.4466   -277.45511   -869.40723    343.67763    47.138147    20.102296    21.035954           90           90           90 
  418000    267.87174   -10952.855   -9746.3594   -10952.855            0     971.7909    46.886154    20.227826    20.997508            0            0            0     19914.14    841.56003    869.37836    1204.4343   -197.20662    -684.3769   -245.78812    46.886154    20.227826    20.997508           90           90           90 
  418500    267.95578   -10918.845   -9711.9716   -10918.845            0    1910.8225    46.872399    20.103771    21.111058            0            0            0    19893.203    2696.7653    1910.5607    1125.1414   -171.78836    94.926865   -539.05389    46.872399    20.103771    21.111058           90           90           90 
  419000    266.69549   -10905.846   -9704.6489   -10905.846            0    1678.6722    47.252358    20.048456    21.023523            0            0            0    19916.357    531.76657    2570.8121    1933.4379    155.84345   -1472.7834    1048.0174    47.252358    20.048456    21.023523           90           90           90 
  419500    274.21929   -10929.082   -9693.9967   -10929.082            0    2476.0135    47.370384    20.148109    20.941841            0            0            0    19987.388    2095.6656    2699.8325    2632.5424    266.89244    1286.6513     292.1395    47.370384    20.148109    20.941841           90           90           90 
  420000    255.99995   -10897.038   -9744.0133   -10897.038            0    1533.8452    46.993846    20.204475    21.013887            0            0            0    19952.391    1872.5783    738.88318     1990.074    69.684024    130.11853    669.81046    46.993846    20.204475    21.013887           90           90           90 
  420500    270.06105   -10841.169   -9624.8132   -10841.169            0    2141.2131    47.033866    20.152291    20.985248            0            0            0    19890.661    3208.3999    1103.7383    2111.5011   -138.97271   -964.75501    138.39466    47.033866    20.152291    20.985248           90           90           90 
  421000    268.08096   -10903.152   -9695.7144   -10903.152            0    2074.9696    46.939638    20.176086    21.078148            0            0            0    19962.232    1613.7892    2270.1294      2340.99    -213.9572   -580.60672    1261.5492    46.939638    20.176086    21.078148           90           90           90 
  421500    268.22095   -10851.143   -9643.0747   -10851.143            0    2343.5709    47.021148    20.152387    20.949832            0            0            0    19851.817    1473.1122    2792.8903    2764.7101   -115.46836   -807.67711   -497.24171    47.021148    20.152387    20.949832           90           90           90 
  422000    272.76494   -10890.416   -9661.8818   -10890.416            0    2448.0612    46.986781    19.989117    21.207269            0            0            0    19918.382    2383.3959    3049.8532    1910.9344    575.74947   -300.74551    392.31892    46.986781    19.989117    21.207269           90           90           90 
  422500     265.0743   -10878.129   -9684.2331   -10878.129            0    1989.8645    46.796604    20.330872     20.87713            0            0            0     19862.83     2876.844    1060.9991    2031.7504   -290.56266    1085.3155   -61.958254    46.796604    20.330872     20.87713           90           90           90 
  423000    264.09314   -10892.134   -9702.6571   -10892.134            0    2208.4169    46.923369    20.162176    21.088712            0            0            0     19951.55    2219.9597    2501.7359    1903.5552    373.46809    412.84974    370.58667    46.923369    20.162176    21.088712           90           90           90 
  423500     260.1957   -10916.747    -9744.825   -10916.747            0    1518.4676    46.994832    20.240933     21.00254            0            0            0     19978.02    3146.5765    712.42124    696.40508    -755.0126    488.95958    37.277088    46.994832    20.240933     21.00254           90           90           90 
  424000    253.76887   -10900.318   -9757.3416   -10900.318            0    3616.3737    46.711373    19.966889      21.1303            0            0            0    19707.825    3588.9384    4126.2583    3133.9244   -214.24635    590.74281    407.13845    46.711373    19.966889      21.1303           90           90           90 
  424500    262.30044   -10858.448   -9677.0454   -10858.448            0    2110.5917    47.263906    20.183112    20.893463            0            0            0    19930.958    814.05944    3284.5683    2233.1473    111.07377     207.5558    292.74725    47.263906    20.183112    20.893463           90           90           90 
  425000    276.96053   -10911.743   -9664.3113   -10911.743            0    1017.0294    47.147889    20.208135    21.139204            0            0            0    20140.819    805.71642    559.90337    1685.4685    340.45749   -824.37268    419.83187    47.147889    20.208135    21.139204           90           90           90 
  425500    276.93199   -10902.412   -9655.1097   -10902.412            0    1313.5174    46.922863    20.222025    21.003766            0            0            0    19929.955    2665.5245    494.59258    780.43506   -403.80205   -265.27157    22.253489    46.922863    20.222025    21.003766           90           90           90 
  426000    273.67756   -10925.785   -9693.1399   -10925.785            0    1850.6109    47.309292    20.134722    21.057583            0            0            0    20058.599    1524.1042    2038.9609    1988.7676   -157.73663    309.89697   -364.36352    47.309292    20.134722    21.057583           90           90           90 
  426500    268.10802   -10916.333    -9708.773   -10916.333            0    2332.7831    46.957223    20.183665     21.07723            0            0            0    19976.342    2660.6957    3096.8383    1240.8153    384.30116    467.05823   -45.094945    46.957223    20.183665     21.07723           90           90           90 
  427000    266.58029   -10931.378   -9730.6989   -10931.378            0    2466.6988     46.94803    20.200494    20.985132            0            0            0     19901.74     2325.522    2071.9926    3002.5818    619.08731   -529.48307    58.111741     46.94803    20.200494    20.985132           90           90           90 
  427500    265.88952   -10843.739   -9646.1712   -10843.739            0    2353.5153    46.809256    20.223419    20.988478            0            0            0    19868.601    2420.9608    2315.8462    2323.7389    -186.5576    735.57125   -752.78751    46.809256    20.223419    20.988478           90           90           90 
  428000    273.32297   -10949.114   -9718.0659   -10949.114            0    3908.2865    46.822438    19.911694    21.120115            0            0            0     19690.58    2826.2816    5529.4761    3369.1017    595.29991   -668.59439    1016.3268    46.822438    19.911694    21.120115           90           90           90 
  428500    269.29151   -10899.162    -9686.272   -10899.162            0      2495.61    46.996211    20.189498    20.973488            0            0            0    19900.273    2563.4618     2314.921    2608.4473   -351.12685    192.48643   -135.45868    46.996211    20.189498    20.973488           90           90           90 
  429000    272.74456   -10888.467   -9660.0244   -10888.467            0    1880.8128    46.992595    20.073996    21.208897            0            0            0    20006.971     1169.847    2222.8668    2249.7245    181.62146    -823.4457     71.21523    46.992595    20.073996    21.208897           90           90           90 
  429500    280.47918     -10892.5   -9629.2206     -10892.5            0    2154.5533    47.480152      20.0977    20.839183            0            0            0     19885.62    1398.9114    2952.7576    2111.9908   -181.11645   -304.70855   -389.44781    47.480152      20.0977    20.839183           90           90           90 
  430000    254.97608   -10890.681   -9742.2682   -10890.681            0    1702.1512     46.83354    20.086232    21.124909            0            0            0    19872.399    3519.2306    621.33387    965.88905   -274.83546    157.77008    41.444292     46.83354    20.086232    21.124909           90           90           90 
  430500    268.25923   -10898.892   -9690.6515   -10898.892            0    1702.9698     46.98189    20.153636    21.020357            0            0            0    19903.249    2767.0476    255.48893    2086.3727     168.4149   -177.23539   -201.83636     46.98189    20.153636    21.020357           90           90           90 
  431000    256.80585   -10938.642   -9781.9877   -10938.642            0    2585.4647    46.742196     20.17725    20.990519            0            0            0    19796.767    2985.8576    2293.2395    2477.2968   -422.99723   -69.364343   -300.60411    46.742196     20.17725    20.990519           90           90           90 
  431500    256.67526   -10855.614   -9699.5478   -10855.614            0    2009.5977     46.90889    20.148565    21.047568            0            0            0    19893.042    1668.0872    3145.2224    1215.4836   -180.95719   -45.515813   -208.02829     46.90889    20.148565    21.047568           90           90           90 
  432000    263.83524    -10876.89   -9688.5755    -10876.89            0    1602.0842    47.363915    20.069352    20.977655            0            0            0    19940.584    578.46229    1743.2483    2484.5422   -168.85431    638.92419    809.36452    47.363915    20.069352    20.977655           90           90           90 
  432500    266.13394   -10921.721   -9723.0528   -10921.721            0    1719.7657    47.274626    20.112957    21.028874            0            0            0    19994.937    1365.0876     2458.231    1335.9784    353.47216    -143.3762    902.50321    47.274626    20.112957    21.028874           90           90           90 
  433000    263.27993   -10882.279   -9696.4652   -10882.279            0    828.56574     47.07654    20.174084     21.14663            0            0            0    20083.506   -631.45624    1489.8529    1627.3006    21.196389    323.50998    321.75505     47.07654    20.174084     21.14663           90           90           90 
  433500    267.36578   -10927.112   -9722.8957   -10927.112            0     2294.058    47.001912    20.102736    20.960643            0            0            0    19805.021    3525.9019    1490.6675    1865.6046    -293.2985    245.02754   -412.56641    47.001912    20.102736    20.960643           90           90           90 
  434000    268.62136   -10902.379   -9692.5076   -10902.379            0    2400.2919    46.976541    20.207031    20.979133            0            0            0    19914.576    3271.8725    1669.7828    2259.2205    38.053856    433.58147   -21.199947    46.976541    20.207031    20.979133           90           90           90 
  434500    266.90262   -10872.241   -9670.1103   -10872.241            0    1654.5163    47.003243    20.097562    21.107807            0            0            0    19939.502    1680.9974    1289.0181    1993.5333    200.73355    302.74352   -314.89017    47.003243    20.097562    21.107807           90           90           90 
  435000    253.55777   -10917.984   -9775.9587   -10917.984            0     1747.445     47.16067    20.276869    20.917368            0            0            0    20002.666    2222.8269    727.25057    2292.2575    289.22413    405.54301    621.39692     47.16067    20.276869    20.917368           90           90           90 
  435500    261.21093   -10943.095   -9766.5996   -10943.095            0    1153.0996    47.257275    20.043554      21.1314            0            0            0     20015.74    1475.0721    171.72888    1812.4978   -326.55236   -191.80443    486.11541    47.257275    20.043554      21.1314           90           90           90 
  436000    269.38893   -10890.904   -9677.5753   -10890.904            0    353.51376    47.233457    20.272581    20.986572            0            0            0    20095.568   -496.66109    539.65114    1017.5512   -186.72965    532.65802   -68.115845    47.233457    20.272581    20.986572           90           90           90 
  436500     248.2371   -10875.478   -9757.4168   -10875.478            0    2191.2221    46.984887    20.106428     21.05097            0            0            0    19886.815    2093.3522    2058.4472    2421.8669   -153.75548    486.76849    178.15297    46.984887    20.106428     21.05097           90           90           90 
  437000    261.09081   -10893.193    -9717.239   -10893.193            0    2304.1442    46.712912    20.160695    21.056971            0            0            0    19830.713    2816.2283    2111.5529    1984.6515   -151.38541   -54.351754    132.62079    46.712912    20.160695    21.056971           90           90           90 
  437500    262.84958   -10846.428    -9662.552   -10846.428            0    2213.3721    47.360812    20.118903    21.000466            0            0            0    20010.243    1879.9438    1818.3052    2941.8675   -20.021548    693.41151    329.83275    47.360812    20.118903    21.000466           90           90           90 
  438000    267.58106   -10912.297   -9707.1105   -10912.297            0    1589.1608    46.786631     20.23498    20.964141            0            0            0    19847.309    1279.5818    1529.1447     1958.756    174.95218    238.37094    224.55234    46.786631     20.23498    20.964141           90           90           90 
  438500    257.96636   -10860.491   -9698.6099   -10860.491            0    2212.0171    47.104978    20.075184    21.063879            0            0            0     19918.87    2998.6624     845.5586    2791.8302   -636.52151     935.0384    93.254209    47.104978    20.075184    21.063879           90           90           90 
  439000    256.60672   -10821.989   -9666.2314   -10821.989            0    1120.9596    47.211395    20.237648    20.960197            0            0            0     20026.37    332.40702    1639.0433    1391.4286    -126.5786      302.443    1057.7954    47.211395    20.237648    20.960197           90           90           90 
  439500     267.1737    -10854.36   -9651.0091    -10854.36            0    2371.0751    46.964802    20.160342    21.101209            0            0            0    19979.183    2890.4439    2576.1018    1646.6796   -235.86816    157.86503    172.32832    46.964802    20.160342    21.101209           90           90           90 
  440000    256.00752   -10930.102   -9777.0434   -10930.102            0    1079.2669    46.994567    20.169441    21.035351            0            0            0    19938.445    804.97504    1221.2105    1211.6151    115.45345    416.47227   -641.51546    46.994567    20.169441    21.035351           90           90           90 
  440500    262.05599    -10895.75   -9715.4489    -10895.75            0    1883.4488    46.968862    20.261762    20.828109            0            0            0    19821.526    1320.9689    1354.9883    2974.3893    168.28557   -233.17693   -581.69119    46.968862    20.261762    20.828109           90           90           90 
  441000    255.95563   -10968.812    -9815.987   -10968.812            0    1285.3691     46.87277    20.021274    21.248398            0            0            0    19940.614    1918.3214    1403.9438    533.84195    50.538921    45.157611    720.08277     46.87277    20.021274    21.248398           90           90           90 
  441500    266.23112   -10880.976   -9681.8698   -10880.976            0    2300.0568    47.262265    20.165384    20.844965            0            0            0    19866.537    1879.7128    2292.6852    2727.7722   -64.845477    105.93059   -178.39622    47.262265    20.165384    20.844965           90           90           90 
  442000    262.50973   -10896.164   -9713.8191   -10896.164            0    2795.1938    46.740444    20.035493      21.1548            0            0            0    19810.789    2846.1723    3489.7939    2049.6153    77.038736    676.39857   -1053.9246    46.740444    20.035493      21.1548           90           90           90 
  442500    267.55231   -10894.693   -9689.6361   -10894.693            0    2302.8638    47.058146    20.103023    21.050143            0            0            0    19913.666    2083.4461    2753.7063     2071.439    151.16744   -271.23168   -92.086307    47.058146    20.103023    21.050143           90           90           90 
  443000    267.94431   -10922.554   -9715.7314   -10922.554            0    1517.0892    46.974076    20.190695    20.983383            0            0            0    19901.464    779.52756    2149.9725    1621.7676   -327.62367    388.19213   -612.07839    46.974076    20.190695    20.983383           90           90           90 
  443500    256.41452    -10862.69   -9707.7983    -10862.69            0    2077.2269    46.875399    20.185972    21.052989            0            0            0    19920.875    2263.0916    2261.2939    1707.2951    249.41752   -846.83583     138.9184    46.875399    20.185972    21.052989           90           90           90 
  444000      271.848    -10939.67   -9715.2658    -10939.67            0    1611.0585     47.39873    20.028899     20.97943            0            0            0    19916.704    478.11996    2437.9415    1917.1139    313.14266    370.99742    292.38289     47.39873    20.028899     20.97943           90           90           90 
  444500    263.91991   -10947.227    -9758.531   -10947.227            0     1792.633    47.032212    20.042646    21.069724            0            0            0    19861.375    1657.5951    2300.8012    1419.5026    -729.8575    -268.1388    588.99286    47.032212    20.042646    21.069724           90           90           90 
  445000     267.0189   -10901.012   -9698.3582   -10901.012            0    1959.0629    47.150856    20.086642     21.00561            0            0            0    19894.464    798.15993    3144.3104    1934.7184   -355.09894    607.52836     -346.042    47.150856    20.086642     21.00561           90           90           90 
  445500    273.01289   -10897.158   -9667.5064   -10897.158            0    1872.2394    46.789886    20.198467    21.105692            0            0            0    19946.651    2245.3681    1711.0569    1660.2932    6.6520789     743.5039   -404.24667    46.789886    20.198467    21.105692           90           90           90 
  446000    270.45862   -10889.731   -9671.5844   -10889.731            0    1977.0419    47.008542    20.219732    20.896206            0            0            0    19861.846    2313.7207     1510.554    2106.8511    93.016731   -491.96631   -89.122111    47.008542    20.219732    20.896206           90           90           90 
  446500    267.37066     -10933.1   -9728.8611     -10933.1            0    2455.5525    46.805711    20.191903    21.010352            0            0            0    19856.807    1618.0993    3668.7152    2079.8431    60.177507   -674.82626    379.43999    46.805711    20.191903    21.010352           90           90           90 
  447000    267.71277   -10867.195   -9661.4161   -10867.195            0    3193.0742    47.017991    20.065119    21.132222            0            0            0    19936.594    3593.7117    2663.5676    3321.9434   -20.646587    63.867175   -223.36674    47.017991    20.065119    21.132222           90           90           90 
  447500    257.92817    -10892.49   -9730.7803    -10892.49            0    1207.4596    47.389523    20.246616    20.871718            0            0            0    20025.944     897.1745    922.66858    1802.5359    325.18904    638.98748    1590.3832    47.389523    20.246616    20.871718           90           90           90 
  448000    261.56028   -10875.986   -9697.9171   -10875.986            0    2631.8442    46.938077    20.027189    21.118034            0            0            0    19851.748    2433.5191    3079.2749    2382.7386   -599.86284    615.66743   -60.666177    46.938077    20.027189    21.118034           90           90           90 
  448500     262.6653   -10920.509   -9737.4637   -10920.509            0    3066.1269    46.846882    20.151504    20.981719            0            0            0    19807.479    4003.7746    2239.7417    2954.8643   -416.89297   -810.81553   -270.22886    46.846882    20.151504    20.981719           90           90           90 
  449000    260.48877   -10908.837   -9735.5947   -10908.837            0    4454.5661    46.750442    20.068224    20.947461            0            0            0    19652.874    5941.5877    3349.4494    4072.6613    5.0998053    132.77293    686.02832    46.750442    20.068224    20.947461           90           90           90 
  449500    263.08121    -10915.45   -9730.5316    -10915.45            0    1778.3366    47.037233    20.180168    21.066518            0            0            0    19996.745    1325.0497     1886.527    2123.4332    254.86779   -378.80528    957.50593    47.037233    20.180168    21.066518           90           90           90 
  450000    272.01419   -10912.065    -9686.912   -10912.065            0    636.96875    47.490403    20.080189    20.981186            0            0            0        20008    807.87068    369.59328    733.44228   -138.82181   -511.59353   -221.52575    47.490403    20.080189    20.981186           90           90           90 
  450500    266.54465   -10889.577   -9689.0591   -10889.577            0    3130.7745     46.87943    20.070823    21.023098            0            0            0    19780.818     2994.154    4308.1003    2090.0691   -567.36224   -15.150636    879.83053     46.87943    20.070823    21.023098           90           90           90 
  451000     255.8864   -10964.857   -9812.3434   -10964.857            0    1144.2648    47.175352    20.083957    21.071586            0            0            0    19964.648    254.41403    2215.0868    963.29353    538.12021    338.33593    156.96135    47.175352    20.083957    21.071586           90           90           90 
  451500    267.06456   -10924.782   -9721.9223   -10924.782            0    1891.8225    46.837972    20.232893    20.979338            0            0            0     19881.44    1354.0756    2684.6879     1636.704   -19.758884    263.66313    30.269082    46.837972    20.232893    20.979338           90           90           90 
  452000    263.62158   -10873.032   -9685.6789   -10873.032            0    2141.0727    47.140963    20.125856    20.915484            0            0            0    19843.612    1446.8334    2221.9862    2754.3986   -328.16765   -608.91843   -123.42566    47.140963    20.125856    20.915484           90           90           90 
  452500      264.457   -10911.069   -9719.9534   -10911.069            0    2306.7986    46.663939    20.149982    21.117282            0            0            0    19856.106    3271.0313    2248.4604    1400.9041   -205.83239    112.00383    392.76245    46.663939    20.149982    21.117282           90           90           90 
  453000    257.43171   -10924.042   -9764.5686   -10924.042            0    1810.4958    47.290615    20.074368    20.847295            0            0            0    19790.946     1086.234     1809.575    2535.6784    335.62517   -346.30765    549.89328    47.290615    20.074368    20.847295           90           90           90 
  453500    271.25625   -10849.117   -9627.3774   -10849.117            0    2647.8739    46.840644    20.102997    21.143459            0            0            0     19909.47    2410.6431    3162.0945     2370.884    108.05447      168.559    -271.4898    46.840644    20.102997    21.143459           90           90           90 
  454000    255.81387    -10840.89   -9688.7031    -10840.89            0    1501.4106    47.158051    20.147166    21.102415            0            0            0    20049.427    1442.5527    1237.0189    1824.6601   -249.34982   -320.83124   -282.57837    47.158051    20.147166    21.102415           90           90           90 
  454500    265.39933    -10842.71   -9647.3505    -10842.71            0    2503.3156    47.059332    20.115598    21.026348            0            0            0    19904.101    2895.5156    3316.2939    1298.1373    33.252904    39.050528     238.8835    47.059332    20.115598    21.026348           90           90           90 
  455000    270.05007   -10902.951   -9686.6449   -10902.951            0    2514.3818    47.065718    20.151313    21.053993            0            0            0    19968.365    2778.5021    2239.1338    2525.5094    538.01638     1204.838   -628.69671    47.065718    20.151313    21.053993           90           90           90 
  455500    261.00865   -10921.206   -9745.6225   -10921.206            0    2135.3387    47.177377    20.030434    21.025274            0            0            0    19868.534    1942.1789    3284.9341     1178.903    88.799844   -479.30459   -937.83549    47.177377    20.030434    21.025274           90           90           90 
  456000    266.27867   -10849.149   -9649.8283   -10849.149            0    1434.6821    47.066764    20.104968    21.026363            0            0            0    19896.739    647.19719    1916.8301     1740.019    138.80181    101.21986    934.12689    47.066764    20.104968    21.026363           90           90           90 
  456500    258.81742   -10922.012   -9756.2971   -10922.012            0    1726.4212     46.77423    20.210545    20.919906            0            0            0     19776.27    1813.6493    1595.5095    1770.1047   -171.37988    -800.9859    -136.3538     46.77423    20.210545    20.919906           90           90           90 
  457000    263.03718     -10934.7   -9749.9797     -10934.7            0    1706.9646    46.814729    20.156268    21.121201            0            0            0    19930.181    1353.1471    2611.6752    1156.0714   -112.01067   -956.77082    491.80706    46.814729    20.156268    21.121201           90           90           90 
  457500    268.33994   -10895.327   -9686.7224   -10895.327            0      986.265    47.423892    20.141426    20.991994            0            0            0    20051.234    835.94594     672.2006    1450.6485   -200.63327    231.00098     1192.418    47.423892    20.141426    20.991994           90           90           90 
  458000    260.18696   -10898.043   -9726.1604   -10898.043            0    2817.6924    46.882106    20.195421    20.954757            0            0            0    19840.045    2676.7971    2213.2033    3563.0768   -472.56696   -974.73513    -157.9177    46.882106    20.195421    20.954757           90           90           90 
  458500    260.77008   -10894.244    -9719.734   -10894.244            0    1185.1065    46.994326    20.198486    21.098113            0            0            0    20026.629    593.10033    1733.8837    1228.3356    65.062138   -129.10955   -772.73459    46.994326    20.198486    21.098113           90           90           90 
  459000    272.96621   -10957.327   -9727.8859   -10957.327            0    1550.5975    47.434071    20.053498     20.93932            0            0            0     19917.88    583.41116     2878.938    1189.4435   -323.89947   -543.46941   -253.45656    47.434071    20.053498     20.93932           90           90           90 
  459500    255.87858   -10906.064   -9753.5862   -10906.064            0     1631.542    47.094199    20.112194    21.076726            0            0            0    19963.193    841.53534    2380.0041    1673.0866    48.401009    92.904769   -457.64452    47.094199    20.112194    21.076726           90           90           90 
  460000    269.20405   -10857.141   -9644.6453   -10857.141            0    1909.4368    47.037135    20.174459    21.073815            0            0            0    19997.971    1765.8716    2068.3029     1894.136   -286.64761    267.69142    464.34177    47.037135    20.174459    21.073815           90           90           90 
  460500    266.23009   -10865.245   -9666.1431   -10865.245            0    1285.2735    47.223823    20.085344    21.157213            0            0            0    20067.759    1092.5261    1868.7128     894.5815   -529.81937    272.03112    37.395284    47.223823    20.085344    21.157213           90           90           90 
  461000    268.81813   -10874.986    -9664.228   -10874.986            0    1551.7898    46.741065    20.271989    21.010698            0            0            0    19908.359    2812.3685   -233.48977    2076.4908   -203.94403    279.75215    830.22401    46.741065    20.271989    21.010698           90           90           90 
  461500    261.03127   -10917.594   -9741.9082   -10917.594            0    3154.9617    46.964218    19.978318    21.037624            0            0            0    19738.889    3917.3642    3428.2803    2119.2406    398.11927      501.988    -77.07747    46.964218    19.978318    21.037624           90           90           90 
  462000    269.17228   -10908.983   -9696.6296   -10908.983            0    2087.0442    47.203583    20.163999    20.845847            0            0            0    19841.349    1878.7081    1482.8289    2899.5955   -97.024989   -347.33229     193.2258    47.203583    20.163999    20.845847           90           90           90 
  462500    269.10922   -10857.539   -9645.4697   -10857.539            0    2837.1717    46.874631    20.157249    21.191392            0            0            0    20022.975    3362.8575    2266.8835    2881.7741    332.75053  -0.83041871    393.72921    46.874631    20.157249    21.191392           90           90           90 
  463000    264.42315   -10852.767   -9661.8036   -10852.767            0    2566.4031     46.91132     20.17231    21.008986            0            0            0    19881.008    3021.8067    1614.3117    3063.0909   -196.06111    333.71311   -282.57819     46.91132     20.17231    21.008986           90           90           90 
  463500    271.31731    -10934.95   -9712.9359    -10934.95            0    1568.0205    46.938834    20.274685    21.010389            0            0            0    19994.958    1091.4691    1530.9463    2081.6462   -434.92752    768.56003    301.58909    46.938834    20.274685    21.010389           90           90           90 
  464000    271.53774   -10894.617   -9671.6104   -10894.617            0    2491.4707    46.980042    20.041623    21.069174            0            0            0    19837.813    4007.1855    1251.2612    2215.9655    72.369059    46.034994   -189.79541    46.980042    20.041623    21.069174           90           90           90 
  464500    260.71887   -10888.024   -9713.7448   -10888.024            0    1495.8787    47.180735    20.100555    20.992458            0            0            0    19908.386    454.52813    2929.7682    1103.3399    150.47437    132.24282   -755.44861    47.180735    20.100555    20.992458           90           90           90 
  465000    266.78505   -10906.732    -9705.131   -10906.732            0    2941.1818    46.773445    20.068833    21.133368            0            0            0    19837.648    2475.8478    4215.1438    2132.5539    75.484194    253.24737    914.80051    46.773445    20.068833    21.133368           90           90           90 
  465500     265.0322   -10916.764   -9723.0576   -10916.764            0    1984.0766    46.876044    20.208579     20.91546            0            0            0    19813.179    2427.1415    1390.9976    2134.0907   -291.27687    78.252363    145.92704    46.876044    20.208579     20.91546           90           90           90 
  466000    267.77037   -10893.909   -9687.8698   -10893.909            0    812.35651    47.106744    20.150332    21.109572            0            0            0    20037.555    911.30346    1081.5278    444.23831   -211.28773    -724.4322   -76.743505    47.106744    20.150332    21.109572           90           90           90 
  466500    269.31969   -10882.855   -9669.8378   -10882.855            0    1569.3111    47.248515    20.143816    20.883247            0            0            0    19875.952    358.34595    2372.1993    1977.3881   -393.71566   -838.08524    803.95281    47.248515    20.143816    20.883247           90           90           90 
  467000    266.02423   -10864.066    -9665.892   -10864.066            0    1019.0671    46.694388    20.181457    21.291538            0            0            0     20064.31    1918.0427    555.35413    583.80457   -461.44864   -594.33744   -530.41896    46.694388    20.181457    21.291538           90           90           90 
  467500    252.12048    -10907.48   -9771.9288    -10907.48            0    2125.2962    47.017347    20.090429    20.976674            0            0            0    19814.538    895.67174    3596.4718    1883.7449   -394.75901   -296.52479   -242.18685    47.017347    20.090429    20.976674           90           90           90 
  468000     265.1054   -10907.309   -9713.2728   -10907.309            0    1396.7416    47.232437    20.056927    21.044328            0            0            0    19936.083    748.39995    1860.2665    1581.5583    308.13971    1590.9575     160.5757    47.232437    20.056927    21.044328           90           90           90 
  468500    266.47834   -10932.084   -9731.8645   -10932.084            0    2521.5862    47.008805    20.130183    20.898449            0            0            0    19776.115    1690.5187    2672.6967    3201.5431     87.96289   -789.40848   -44.073779    47.008805    20.130183    20.898449           90           90           90 
  469000    259.10703   -10851.394   -9684.3749   -10851.394            0    1299.7426    46.656877    20.277376    21.191794            0            0            0    20049.112     3438.712   -968.47305     1428.989    318.23297   -71.480019   -438.46415    46.656877    20.277376    21.191794           90           90           90 
  469500     269.3366   -10914.566   -9701.4726   -10914.566            0    2967.3244    47.280291    20.043644    20.920272            0            0            0      19825.5    3189.5466     1969.641    3742.7856     112.2825    373.05262   -133.90627    47.280291    20.043644    20.920272           90           90           90 
  470000    262.35432   -10844.848   -9663.2026   -10844.848            0    1891.0867    46.988555    20.216902    21.014148            0            0            0    19962.662    1457.8062    2172.0135    2043.4404   -21.976696     21.00159    421.98359    46.988555    20.216902    21.014148           90           90           90 
  470500    265.01333   -10906.428   -9712.8069   -10906.428            0    671.61221    47.360603    20.039344     21.09251            0            0            0    20018.383   -1447.7518     2438.522    1024.0665    133.62053    282.54279   -765.05424    47.360603    20.039344     21.09251           90           90           90 
  471000    262.78021   -10890.073   -9706.5096   -10890.073            0    1402.5857    46.958988    20.248954      20.9205            0            0            0    19892.684    524.50436     2513.348    1169.9046     201.6966   -42.757449    -45.96064    46.958988    20.248954      20.9205           90           90           90 
  471500    274.92195   -10937.315   -9699.0652   -10937.315            0    943.04134    47.007258    20.094952    21.229714            0            0            0    20053.769    419.30029     1692.706    717.11768   -94.164217    33.781164    445.87645    47.007258    20.094952    21.229714           90           90           90 
  472000    271.98169   -10851.469   -9626.4626   -10851.469            0    812.44509     47.43129     20.18088     20.87392            0            0            0    19980.623    -186.8242    1659.5878    964.57167    231.24731   -471.38493   -683.68173     47.43129     20.18088     20.87392           90           90           90 
  472500    265.78302   -10880.328   -9683.2403   -10880.328            0    1880.7254    46.903597    20.119267    21.051462            0            0            0    19865.548    2521.8379    1520.6686    1599.6697     23.12795    108.10113    208.57699    46.903597    20.119267    21.051462           90           90           90 
  473000    271.07079   -10877.664   -9656.7598   -10877.664            0    2418.4974    47.048365    20.230281    20.975513            0            0            0    19964.527    3343.0987    1891.2302    2021.1635   -457.76678   -434.59507    591.80535    47.048365    20.230281    20.975513           90           90           90 
  473500    270.89627    -10892.26   -9672.1419    -10892.26            0    1847.6982    47.349328    20.021729     21.02827            0            0            0    19935.124    1273.4525    1968.1819    2301.4603     260.3544   -368.67542    924.45234    47.349328    20.021729     21.02827           90           90           90 
  474000    261.94219   -10902.308   -9722.5189   -10902.308            0    2405.9982    47.017077    20.088381    21.101017            0            0            0    19929.846    1929.3514    2809.6873     2478.956    264.47585    192.34043   -87.449092    47.017077    20.088381    21.101017           90           90           90 
  474500    265.62962   -10874.156   -9677.7593   -10874.156            0    390.82624    47.415945    20.217476    21.008265            0            0            0    20139.168    990.06386   -408.56908    590.98394   -35.185981   -508.24624    35.930574    47.415945    20.217476    21.008265           90           90           90 
  475000    265.58127   -10931.529   -9735.3496   -10931.529            0    1651.6683    47.018903    20.100842    21.123162            0            0            0    19963.914    1368.0084    2045.4794     1541.517     144.8126    -999.6225    36.481497    47.018903    20.100842    21.123162           90           90           90 
  475500    261.47012   -10924.474    -9746.812   -10924.474            0    2131.9769    46.866093    20.161781    20.951473            0            0            0    19797.129    2572.4233    1490.1263     2333.381   -11.720176    390.88054    18.427115    46.866093    20.161781    20.951473           90           90           90 
  476000    272.85152   -10837.272   -9608.3479   -10837.272            0    1409.7438    47.103696    20.143948    21.198943            0            0            0    20114.711     1167.554    1866.1991    1195.4784    240.42056    7.1945086     172.8251    47.103696    20.143948    21.198943           90           90           90 
  476500    262.55984    -10864.97   -9682.3996    -10864.97            0    1927.5499     47.05593    20.099946    21.075772            0            0            0    19933.921    2692.2888    1837.6668     1252.694   -86.535478    497.89914    270.46861     47.05593    20.099946    21.075772           90           90           90 
  477000    272.60866   -10902.463   -9674.6327   -10902.463            0    2881.2403    46.966664    20.200101    20.834696            0            0            0    19766.529    3680.9878    2272.4604    2690.2728   -323.46098   -526.88594    496.89834    46.966664    20.200101    20.834696           90           90           90 
  477500    275.28295   -10864.321   -9624.4456   -10864.321            0    1750.4972    46.949173     20.00527    21.239477            0            0            0    19948.772    942.65209    2714.3981    1594.4415   -445.68302   -807.04803    299.30518    46.949173     20.00527    21.239477           90           90           90 
  478000    263.80115   -10890.597   -9702.4352   -10890.597            0    1876.6991     47.30971    20.141112    20.922043            0            0            0    19935.991    845.79472    2754.3512    2029.9514   -45.145665   -24.771711   -556.56604     47.30971    20.141112    20.922043           90           90           90 
  478500    259.47626   -10911.115   -9742.4334   -10911.115            0    1962.6217    46.743402    20.164013    21.095993            0            0            0    19883.702    1450.6395    2387.3894    2049.8363   -479.82248   -862.01452    106.15338    46.743402    20.164013    21.095993           90           90           90 
  479000    263.25979   -10906.672   -9720.9491   -10906.672            0     1973.716    47.040046    20.150945    20.970214            0            0            0    19877.694    1244.5954     2202.283    2474.2696   -412.04787     18.68424    279.09069    47.040046    20.150945    20.970214           90           90           90 
  479500    259.83798   -10900.568   -9730.2565   -10900.568            0    2245.7582    46.776506     19.99669    21.165295            0            0            0    19797.493     2624.906    2550.8221    1561.5465    33.233948    811.45593    480.45013    46.776506     19.99669    21.165295           90           90           90 
  480000    264.03159   -10879.505   -9690.3056   -10879.505            0    2149.9047     47.41281    20.158642     20.82054            0            0            0    19899.811    1742.8653    1653.6197    3053.2291    203.86822    -723.9446   -23.259918     47.41281    20.158642     20.82054           90           90           90 
  480500    268.42702   -10863.696   -9654.6994   -10863.696            0    1654.8705    47.055783    20.200392    21.133013            0            0            0    20087.886    1639.4827    1561.2063    1763.9224   -120.42341    165.29133    396.65512    47.055783    20.200392    21.133013           90           90           90 
  481000    255.45835   -10958.042   -9807.4563   -10958.042            0    1620.2274    46.899438    20.156339    21.013299            0            0            0    19864.312    2984.4771     693.0054    1183.1997    195.69691   -257.83938    648.43518    46.899438    20.156339    21.013299           90           90           90 
  481500    264.95968   -10861.881   -9668.5015   -10861.881            0    1387.4298    47.083053       20.075    21.050776            0            0            0    19897.031     2005.268    1420.6868    736.33445   -20.398671   -627.14129   -340.47219    47.083053       20.075    21.050776           90           90           90 
  482000    260.17484   -10965.338   -9793.5095   -10965.338            0    1404.3094    47.429339    19.963518    21.111573            0            0            0    19989.629    654.49375     2030.766    1527.6685   -71.498387    1085.1666   -520.60771    47.429339    19.963518    21.111573           90           90           90 
  482500    282.64736   -10934.147   -9661.1025   -10934.147            0    1856.2358     47.09138    20.077985    21.017008            0            0            0    19871.581    606.09317    3069.9654    1892.6487    178.26537    1273.2461    80.724876     47.09138    20.077985    21.017008           90           90           90 
  483000    255.96949   -10919.997   -9767.1093   -10919.997            0    743.54203    46.955978    20.294784    20.989532            0            0            0    20002.214    913.83539    70.439415    1246.3513   -255.57943   -610.06683   -646.22273    46.955978    20.294784    20.989532           90           90           90 
  483500    268.13791    -10895.02   -9687.3258    -10895.02            0    2423.4796     46.92294    20.021868    21.129851            0            0            0    19851.176    1909.2105    2969.2461    2391.9821    344.76037    1292.8407   -377.21679     46.92294    20.021868    21.129851           90           90           90 
  484000    265.10453   -10889.494   -9695.4622   -10889.494            0    2648.6311     46.92745     20.08585    20.948829            0            0            0    19745.899    2332.6889     3973.685    1639.5195    142.58393   -137.60247   -425.85772     46.92745     20.08585    20.948829           90           90           90 
  484500    265.92102   -10913.658   -9715.9491   -10913.658            0    1149.7251    47.174889    20.180171    21.068633            0            0            0    20057.283    1297.9397    1281.2927    869.94282   -559.18529   -73.188954   -102.40818    47.174889    20.180171    21.068633           90           90           90 
  485000    263.38917    -10849.83   -9663.5242    -10849.83            0    1669.0498    46.780553    20.153013    21.128055            0            0            0    19918.878    1215.7835    2771.4227    1019.9432   -60.600364   -456.04836   -194.86585    46.780553    20.153013    21.128055           90           90           90 
  485500     264.4628   -10904.531   -9713.3898   -10904.531            0    1019.5883    46.995145    20.181639        21.05            0            0            0    19964.642    1279.7997    568.28602    1210.6792    144.50668   -633.10327    1322.7327    46.995145    20.181639        21.05           90           90           90 
  486000      260.976   -10987.616   -9812.1793   -10987.616            0     2141.553    47.184093    20.017574    21.027274            0            0            0    19860.493    2131.7877    2228.1391    2064.7322    180.87814    261.42645   -8.5573763    47.184093    20.017574    21.027274           90           90           90 
  486500    265.62865   -10885.565   -9689.1721   -10885.565            0    1730.7948    47.292916    20.045097     21.06573            0            0            0    19970.124    638.10831    2990.4755    1563.8007   -70.451417   -710.94492    741.35589    47.292916    20.045097     21.06573           90           90           90 
  487000    255.17667   -10921.613   -9772.2966   -10921.613            0    1734.8508    46.823617    20.225698    20.965869            0            0            0    19855.523    2399.4249    1035.1908    1769.9366   -245.44086   -82.123623    747.21461    46.823617    20.225698    20.965869           90           90           90 
  487500    262.97183    -10910.94   -9726.5135    -10910.94            0    1768.5109    46.706787    20.109504    21.179524            0            0            0    19892.874    2702.6779    1362.6758    1240.1791    288.76901   -251.51923   -186.86416    46.706787    20.109504    21.179524           90           90           90 
  488000    266.87161   -10897.838   -9695.8476   -10897.838            0    1846.8713    47.259294    20.136575      20.8098            0            0            0    19803.445    2636.2928    926.95254    1977.3685   -601.48048   -9.0725499   -271.49559    47.259294    20.136575      20.8098           90           90           90 
  488500    263.79065   -10883.388   -9695.2742   -10883.388            0    2090.5433    46.964015    20.168049    21.160877            0            0            0    20043.002    1934.3824    2166.4114     2170.836   -26.925865   -1000.0006   -361.23439    46.964015    20.168049    21.160877           90           90           90 
  489000     267.7822    -10929.92   -9723.8282    -10929.92            0    1972.9979    46.992281    20.163741    20.949741            0            0            0    19850.721    1860.2499    2517.5105    1541.2331    -120.8896    846.48031   -1124.9358    46.992281    20.163741    20.949741           90           90           90 
  489500    258.61527   -10878.975   -9714.1704   -10878.975            0    2285.6558    47.020318    20.099781     21.01309            0            0            0    19859.432     1600.237    2347.4189    2909.3114    104.66195   -270.88675    343.27135    47.020318    20.099781     21.01309           90           90           90 
  490000    269.66311   -10910.542    -9695.978   -10910.542            0    782.13508    47.182129    20.143756    21.048477            0            0            0    20005.005    1006.4357    1062.7859     277.1837    75.961537    286.35192    444.53146    47.182129    20.143756    21.048477           90           90           90 
  490500    279.65831   -10891.527   -9631.9453   -10891.527            0    2084.1742    47.401542    20.021347    20.960417            0            0            0     19892.33    2495.7195     1820.838     1935.965    336.52002   -893.82205   -87.400786    47.401542    20.021347    20.960417           90           90           90 
  491000    272.36394   -10901.838   -9675.1099   -10901.838            0    1777.3585     46.98486    20.152132    21.022479            0            0            0    19905.032    2114.0265      1423.26    1794.7891    67.857239    1239.9188   -17.168718     46.98486    20.152132    21.022479           90           90           90 
  491500    266.68384   -10925.711   -9724.5658   -10925.711            0    2605.7321    46.521464    20.329347    20.896894            0            0            0    19763.258    1824.4029    3481.9454     2510.848   -232.02247    204.41989    185.29499    46.521464    20.329347    20.896894           90           90           90 
  492000    264.25361   -10905.733   -9715.5336   -10905.733            0    1764.3723    47.024146    20.207129    20.981987            0            0            0    19937.566    1903.8871    1013.4755    2375.7541   -318.49144    33.538508    888.03166    47.024146    20.207129    20.981987           90           90           90 
  492500     257.0047   -10935.122   -9777.5717   -10935.122            0    2709.1889    46.955242    20.119357    21.048699            0            0            0    19884.901    2990.2749    3159.1503    1978.1414   -294.02026    242.80585    239.58868    46.955242    20.119357    21.048699           90           90           90 
  493000    258.59393   -10912.495   -9747.7874   -10912.495            0    1898.8938    47.142377    20.118549    20.940393            0            0            0    19860.627    2313.2027    1613.5638    1769.9149   -384.15853    112.67892    213.60646    47.142377    20.118549    20.940393           90           90           90 
  493500    271.72754   -10868.382   -9644.5201   -10868.382            0    1146.1476    47.118376     20.12726     21.11319            0            0            0    20022.986   -195.21699    2991.8894    641.77046    126.64749   -433.71842    189.19686    47.118376     20.12726     21.11319           90           90           90 
  494000    274.25754   -10878.301   -9643.0438   -10878.301            0    1417.1543    46.847186    20.287327     21.11341            0            0            0    20066.273    2312.2158    1502.7369    436.51028    408.09278    386.29191   -125.15116    46.847186    20.287327     21.11341           90           90           90 
  494500    268.30485   -10914.989    -9706.543   -10914.989            0    1685.5923    46.946602    20.347835    20.926863            0            0            0     19990.63      2164.73    601.63039    2290.4165   -188.48325     210.3673   -168.65383    46.946602    20.347835    20.926863           90           90           90 
  495000    268.66769   -10887.484   -9677.4035   -10887.484            0    2811.7815    46.898607    20.117289    21.076633            0            0            0    19885.231    2106.5116    3784.4207    2544.4123   -481.55504   -496.85914    301.28245    46.898607    20.117289    21.076633           90           90           90 
  495500    267.99078   -10898.549   -9691.5171   -10898.549            0    2087.1915    47.391335    20.030166    20.969083            0            0            0    19905.034    1847.4774    2005.8841     2408.213     358.0656   -157.11106    558.32492    47.391335    20.030166    20.969083           90           90           90 
  496000    270.28714   -10924.663   -9707.2883   -10924.663            0    1556.6072    46.991241    20.253342     21.03011            0            0            0    20014.979    1006.2209    1417.9803    2245.6203    302.58925   -114.47371   -38.345421    46.991241    20.253342     21.03011           90           90           90 
  496500    257.70305   -10864.795   -9704.0992   -10864.795            0     1313.756    46.801202     20.20168    21.064194            0            0            0    19915.415    2278.2323   -148.18062    1811.2162    207.87974    761.74041    177.70569    46.801202     20.20168    21.064194           90           90           90 
  497000    261.77421   -10909.448   -9730.4155   -10909.448            0    2586.8723    47.137365    20.076823    20.962145            0            0            0    19837.915    848.24517    3560.1511    3352.2207    181.97688    1033.2683   -73.953899    47.137365    20.076823    20.962145           90           90           90 
  497500    262.26848   -10943.422   -9762.1639   -10943.422            0    1203.9715    47.082383    20.105589    21.221446            0            0            0    20088.625   -487.51513    2490.6611    1608.7687   -276.93065    660.76733    50.807634    47.082383    20.105589    21.221446           90           90           90 
  498000    269.27836   -10918.437   -9705.6063   -10918.437            0     2573.831    47.175893    20.119459    20.915518            0            0            0    19852.035    2910.5153    1610.8906    3200.0872    123.97569    138.68967    383.85887    47.175893    20.119459    20.915518           90           90           90 
  498500    258.88863   -10904.058   -9738.0224   -10904.058            0    260.19966    46.883588    20.163884    21.133266            0            0            0    19978.443    1149.8704    113.11126   -482.38271   -44.649261   -592.69444   -474.69766    46.883588    20.163884    21.133266           90           90           90 
  499000    263.23959    -10831.61   -9645.9777    -10831.61            0    2646.9204    47.083886     20.12203    21.029869            0            0            0    19924.189    1403.4488    4047.1847    2490.1278   -225.13272    117.99527   -373.69841    47.083886     20.12203    21.029869           90           90           90 
  499500    266.51858    -10935.36   -9734.9594    -10935.36            0    1241.5489    46.841342    20.109925    21.143491            0            0            0    19916.658    1778.9707    700.55152    1245.1243   -151.80532   -1110.5783    39.547608    46.841342    20.109925    21.143491           90           90           90 
  500000    268.94161   -10876.516   -9665.2016   -10876.516            0    1452.5543    47.169175    20.270664    20.877811            0            0            0    19962.329    1214.5856    1392.3157    1750.7615   -118.73551    835.59449   -331.43811    47.169175    20.270664    20.877811           90           90           90 
Loop time of 1430.21 on 32 procs for 500000 steps with 2268 atoms

Performance: 60.411 ns/day, 0.397 hours/ns, 349.598 timesteps/s
99.1% CPU use with 32 MPI tasks x 1 OpenMP threads

MPI task timing breakdown:
Section |  min time  |  avg time  |  max time  |%varavg| %total
---------------------------------------------------------------
Pair    | 235.16     | 273.07     | 320.49     | 153.4 | 19.09
Bond    | 0.57657    | 0.60678    | 0.62134    |   1.3 |  0.04
Kspace  | 640.02     | 688.74     | 728.71     |  98.3 | 48.16
Neigh   | 19.824     | 20.115     | 20.432     |   4.2 |  1.41
Comm    | 156.31     | 167.51     | 176.74     |  44.6 | 11.71
Output  | 4.0694     | 4.0721     | 4.0998     |   0.3 |  0.28
Modify  | 216.14     | 242.26     | 267.14     | 100.7 | 16.94
Other   |            | 33.84      |            |       |  2.37

Nlocal:        70.8750 ave          79 max          61 min
Histogram: 1 0 1 6 4 5 10 2 1 2
Nghost:        3099.97 ave        3153 max        3048 min
Histogram: 2 3 2 5 4 6 3 3 2 2
Neighs:        21503.2 ave       25883 max       18522 min
Histogram: 5 2 5 6 1 3 5 3 1 1

Total # of neighbors = 688103
Ave neighs/atom = 303.39638
Ave special neighs/atom = 2.0000000
Neighbor list builds = 23303
Dangerous builds = 0

unfix		3
unfix		2
unfix		1

write_data	data.final.${pid}
write_data	data.final.0
System init for write_data ...
PPPM initialization ...
  extracting TIP4P info from pair style
  using 12-bit tables for long-range coulomb (../kspace.cpp:340)
  G vector (1/distance) = 0.37233953
  grid = 48 27 27
  stencil order = 5
  estimated absolute RMS force accuracy = 0.0033718938
  estimated relative force accuracy = 1.0154358e-05
  using double precision FFTW3
  3d grid and FFT values/proc = 6006 1344
Last active /omp style is kspace_style pppm/tip4p/omp
WARNING: Not all mixed pair coeffs generated from mixing. Use write_data with 'pair ij' option to store all pair coeffs. (../write_data.cpp:312)

write_restart   restart.lmp.${pid}
write_restart   restart.lmp.0
System init for write_restart ...
PPPM initialization ...
  extracting TIP4P info from pair style
  using 12-bit tables for long-range coulomb (../kspace.cpp:340)
  G vector (1/distance) = 0.37233953
  grid = 48 27 27
  stencil order = 5
  estimated absolute RMS force accuracy = 0.0033718938
  estimated relative force accuracy = 1.0154358e-05
  using double precision FFTW3
  3d grid and FFT values/proc = 6006 1344
Last active /omp style is kspace_style pppm/tip4p/omp
Total wall time: 0:23:50
