LAMMPS (30 Jul 2021)
Processor partition = 1
  using 2 OpenMP thread(s) per MPI task
using multi-threaded neighbor list subroutines
variable        pid world 0 1
variable        phase world IceV IceIII

shell cd ${phase}
shell cd IceIII
include Restart.lmp
echo both
log log.lammps
#include		in.partitions
include		in.temp
variable        temperature equal 101.47
variable	tempDamp equal 100.0
include		in.pressure
variable        pressure equal 6902.9
variable        pressureDamp equal 1000.0 # This is 1 ps
include		in.seed
variable        seed equal 745823

units		real
atom_style	full

read_restart	restart.lmp.${pid}
read_restart	restart.lmp.1
Reading restart file ...
  restart file = 30 Jul 2021, LAMMPS = 30 Jul 2021
  restoring atom style full from restart
  orthogonal box = (0.11964990 0.11033218 0.12002365) to (19.880351 19.889669 20.579974)
  2 by 4 by 4 MPI processor grid
  restoring pair style lj/cut/tip4p/long/omp from restart
  restoring bond style harmonic/omp from restart
  restoring angle style harmonic/omp from restart
  972 atoms
  648 bonds
  324 angles
Finding 1-2 1-3 1-4 neighbors ...
  special bond factors lj:    0        0        0       
  special bond factors coul:  0        0        0       
     2 = max # of 1-2 neighbors
     1 = max # of 1-3 neighbors
     1 = max # of 1-4 neighbors
     2 = max # of special neighbors
  special bonds CPU = 0.002 seconds
  read_restart CPU = 0.007 seconds
include 	in.setup
variable	out_freq equal 1000
variable	out_freq2 equal 10000
variable	out_freq3 equal 1000

timestep	2.0

neigh_modify    delay 7 every 1

include		in.tip4p
# This is TIP4P/Ice

# create groups ###
group ox type 2
324 atoms in group ox
group hy type 1
648 atoms in group hy

# set charges - beside manually ###
set group ox charge -1.1794
Setting atom values ...
  324 settings made for charge
set group hy charge 0.5897
Setting atom values ...
  648 settings made for charge

# ### TIP3P Potential Parameters ###
pair_style lj/cut/tip4p/long/omp 2 1 1 1 0.1577 8.5
pair_coeff 1 1*2 0.000 0.000
pair_coeff 2 2 0.21084 3.1668
bond_style  harmonic
bond_coeff  1 450 0.9572
angle_style harmonic
angle_coeff 1 55 104.52
kspace_style pppm/tip4p/omp 1.0e-5
pair_modify tail yes

thermo          ${out_freq}
thermo          1000
thermo_style    custom step temp pe etotal epair emol press lx ly lz vol pxx pyy pzz pxy pxz pyz enthalpy

restart 	${out_freq3} restart.lmp.${pid} restart2.lmp.${pid}
restart 	1000 restart.lmp.${pid} restart2.lmp.${pid}
restart 	1000 restart.lmp.1 restart2.lmp.${pid}
restart 	1000 restart.lmp.1 restart2.lmp.1


include         in.dump
dump            myDump all atom ${out_freq2} dump.water.${pid}
dump            myDump all atom 10000 dump.water.${pid}
dump            myDump all atom 10000 dump.water.1
dump            myDump2 all dcd ${out_freq2} dump.dcd
dump            myDump2 all dcd 10000 dump.dcd
dump_modify     myDump append yes
dump_modify     myDump2 append yes


variable natoms 	equal  "count(all)"                        # NUMBER ATOMS
variable H      	equal  "enthalpy/v_natoms"                 # ENTHALPY-per-atom
variable Vol      	equal  "vol/v_natoms"                 # volume-per-atom
fix AVG all 		ave/time ${out_freq} 1 ${out_freq} v_Vol v_H file vol_enthalpy.dat
fix AVG all 		ave/time 1000 1 ${out_freq} v_Vol v_H file vol_enthalpy.dat
fix AVG all 		ave/time 1000 1 1000 v_Vol v_H file vol_enthalpy.dat


timer           timeout 02:55:00 every 1000
New timer settings: style=normal  mode=nosync  timeout=02:55:00

fix 		1 all shake 1e-6 200 0 b 1 a 1
Finding SHAKE clusters ...
       0 = # of size 2 clusters
       0 = # of size 3 clusters
       0 = # of size 4 clusters
     324 = # of frozen angles
  find clusters CPU = 0.000 seconds
fix             2 all nph aniso ${pressure} ${pressure} ${pressureDamp}
fix             2 all nph aniso 6902.9 ${pressure} ${pressureDamp}
fix             2 all nph aniso 6902.9 6902.9 ${pressureDamp}
fix             2 all nph aniso 6902.9 6902.9 1000
fix             3 all temp/csvr ${temperature} ${temperature} ${tempDamp} ${seed}
fix             3 all temp/csvr 101.47 ${temperature} ${tempDamp} ${seed}
fix             3 all temp/csvr 101.47 101.47 ${tempDamp} ${seed}
fix             3 all temp/csvr 101.47 101.47 100 ${seed}
fix             3 all temp/csvr 101.47 101.47 100 745823


run             250000
PPPM initialization ...
  extracting TIP4P info from pair style
  using 12-bit tables for long-range coulomb (../kspace.cpp:340)
  G vector (1/distance) = 0.37230028
  grid = 24 24 24
  stencil order = 5
  estimated absolute RMS force accuracy = 0.0034953664
  estimated relative force accuracy = 1.0526192e-05
  using double precision FFTW3
  3d grid and FFT values/proc = 3211 432
Last active /omp style is kspace_style pppm/tip4p/omp
Neighbor list info ...
  update every 1 steps, delay 7 steps, check yes
  max neighbors/atom: 2000, page size: 100000
  master list distance cutoff = 10.8154
  ghost atom cutoff = 10.8154
  binsize = 5.4077, bins = 4 4 4
  1 neighbor lists, perpetual/occasional/extra = 1 0 0
  (1) pair lj/cut/tip4p/long/omp, perpetual
      attributes: half, newton on, omp
      pair build: half/bin/newton/omp
      stencil: half/bin/3d
      bin: standard
Setting up Verlet run ...
  Unit style    : real
  Current step  : 32000000
  Time step     : 2
  Walltime left : 2:54:59.94
Per MPI rank memory allocation (min/avg/max) = 10.19 | 10.19 | 10.19 Mbytes
Step Temp PotEng TotEng E_pair E_mol Press Lx Ly Lz Volume Pxx Pyy Pzz Pxy Pxz Pyz Enthalpy 
32000000    109.23965   -5029.6042   -4818.9263   -5029.6042            0    7593.6206    19.760701    19.779337    20.459951    7996.8446    7546.6362    6965.6387    8268.5868   -334.64513     310.2136   -222.80958   -3933.3144 
32001000    102.89154    -5043.033   -4844.5981    -5043.033            0    5701.6689    19.656344    19.811177     20.48269     7976.273    6531.5795    5346.7162    5226.7111   -171.39937   -38.072806   -53.648595   -4181.3471 
32002000    105.73787   -5049.1237   -4845.1993   -5049.1237            0    6197.0456     19.71578     19.76085    20.491414    7983.4667    7047.7608    6412.1811     5131.195   -166.04961     346.4378    152.84284   -4123.6732 
32003000    101.28952   -5042.7474    -4847.402   -5042.7474            0    6772.3215    19.745653    19.825894    20.375184    7976.3794    5928.5753    7402.2527    6986.1365   -148.57436    1713.7618    1688.3519   -4059.5961 
32004000    98.336026   -5045.5294   -4855.8801   -5045.5294            0    6892.3581    19.685035    19.846982    20.374188    7959.9618    7688.5978    6251.7597     6736.717   -230.98512    1426.5226   -1251.2242   -4055.7608 
32005000    99.894939   -5036.0121   -4843.3563   -5036.0121            0    7767.7694     19.79784    19.656338    20.482707    7970.9079    7960.5724    7877.9188    7464.8169    96.042434   -63.126573    116.49979   -3940.3724 
32006000    103.91787   -5035.0566   -4834.6422   -5035.0566            0    7147.4858    19.786783    19.815885    20.293321    7956.8613    8102.5436    6279.9992    7059.9146   -299.62116    -82.71969    369.08104    -4005.229 
32007000    103.79437   -5044.9001    -4844.724   -5044.9001            0    6817.1984    19.758702    19.740665    20.438179    7971.9105    6632.9155    6858.8372    6959.8425   -176.62562    195.56044   -246.61845   -4052.1419 
32008000    97.963185   -5029.0841   -4840.1538   -5029.0841            0    7016.2129    19.649665     19.78879    20.503189    7972.5234    7954.4354    6380.1175    6714.0858   -438.66684   -183.97259   -636.84236   -4024.3712 
32009000    105.31811   -5036.6397   -4833.5249   -5036.6397            0    6951.3701    19.799304    19.750568    20.491457     8013.133    7365.2616    7983.6109     5505.238   -174.23743    20.826639    211.67547   -4021.1646 
32010000     105.4489   -5039.5275   -4836.1604   -5039.5275            0    6397.4131     19.76197    19.780456    20.433426    7987.4426    5087.5828    6534.4789    7570.1776    -613.7135   -236.65406   -67.731665   -4090.9344 
32011000    101.76138   -5041.9273   -4845.6719   -5041.9273            0    7307.0536    19.852599    19.804975    20.361692    8005.8146    7454.7016    6791.0929    7675.3665   -122.56653     417.8352    165.17408   -3992.5252 
32012000    105.27629   -5034.8384   -4831.8042   -5034.8384            0    6071.1803    19.826115     19.86917    20.468868     8063.269    7109.5272    5464.4897    5639.5239    24.054758    1033.2832   -165.54608   -4117.8668 
32013000    104.76575   -5030.1989   -4828.1494   -5030.1989            0     7094.151    19.647168    19.768871    20.579602    7993.1655    6049.8221    8701.8753    6530.7556    65.069736    154.89697    -86.21886   -4001.1692 
32014000    98.483331    -5037.111   -4847.1776    -5037.111            0    6712.3456    19.714408    19.751797    20.526544    7992.9334    6571.6673    7525.0058    6040.3638   -260.85454    160.80448   -463.20583    -4064.728 
32015000    103.25846   -5043.8655   -4844.7229   -5043.8655            0    7034.9985    19.830838    19.683967    20.479049    7993.9879     4825.958    9118.9773    7160.0603   -518.14458   -951.93555   -219.80692   -4024.5538 
32016000    102.97418   -5046.8035   -4848.2091   -5046.8035            0    6574.4854    19.758287    19.780659    20.490626    8008.3909    7656.8556    5608.8526     6457.748   0.33230102    682.10279    528.58514   -4080.3475 
32017000    101.92516   -5040.5314   -4843.9602   -5040.5314            0    6054.2713    19.904974    19.757416    20.330412    7995.3584     5683.352     5356.471    7122.9909   -105.21101    234.65535    17.711209   -4138.0073 
32018000    99.225817   -5048.7675   -4857.4022   -5048.7675            0    5504.7367    19.688944    19.902288    20.483859     8026.703    5173.9977    5170.1407    6170.0719    308.54717    178.15418    680.00421   -4213.0109 
32019000    104.25342   -5045.2804   -4844.2189   -5045.2804            0    8068.4789    19.751503    19.780435     20.48917    8004.9818    7724.6682    9525.9325     6954.836   -175.45704    1493.0432    104.39651   -3902.2688 
32020000    103.13962   -5050.9333   -4852.0199   -5050.9333            0    5465.8811    19.817027    19.767321    20.553929    8051.5814    5378.2484    5692.2217    5327.1733    339.47862    1158.9499    163.13022   -4210.1939 
32021000    99.412147    -5048.084   -4856.3593    -5048.084            0    6132.0735    19.788874    19.796499    20.447255    8010.2211    6050.9627    5966.7691    6378.4887   -319.11981    308.78745    1519.0756   -4140.0052 
32022000    102.07949   -5037.4608   -4840.5919   -5037.4608            0    7025.8453    19.724259    19.749535    20.484823    7979.7596    6564.4716    8006.1711    6506.8932   -653.59623   -739.91688    358.36491   -4022.9478 
32023000    94.439475   -5038.7656   -4856.6311   -5038.7656            0    6805.2185    19.654556    19.738059    20.620677    7999.6428    7151.0744    7155.1346    6109.4466   -440.54337    500.50539   -119.49618   -4062.6895 
32024000    105.63122   -5031.0512   -4827.3325   -5031.0512            0     6492.155    19.714198    19.795716    20.473447    7989.8992    5592.5224    7710.0475    6173.8951     543.9291    660.68809   -161.00012   -4070.8375 
32025000     107.0038   -5035.5587   -4829.1929   -5035.5587            0    6879.4146    19.755677    19.775396    20.378001    7961.2026    6017.3542    7587.0262    7033.8633   -574.01087   -536.61928    25.746752   -4030.4518 
32026000     108.7209    -5041.479   -4831.8016    -5041.479            0    7318.5265    19.722796    19.789657    20.426854    7972.7516    8221.5917    6512.0212    7221.9666   -130.48833    261.15422    312.53509   -3980.8443 
32027000    103.44355   -5031.8962   -4832.3967   -5031.8962            0    5976.2958    19.918412     19.72051    20.404102    8014.7569    5262.9981     6198.653    6467.2363    267.04998    218.05413   -558.40659   -4133.8453 
32028000    97.965483   -5038.6484   -4849.7137   -5038.6484            0    6943.8841    19.848409    19.746531    20.415335    8001.5301    7107.0945    6790.0471    6934.5105   -262.51435   -1274.0329    -379.1874   -4039.4034 
32029000    103.67097    -5046.355   -4846.4168    -5046.355            0     5252.533     19.95938    19.659967    20.494756    8042.1576    3918.2871    6085.3154    5753.9965    303.55078    145.69032   -74.688723    -4230.365 
32030000    107.44241   -5049.4809   -4842.2692   -5049.4809            0     6225.265    19.899682    19.664345    20.488469    8017.4291    5973.2019    5933.9785    6768.6146   -531.64243   -649.86724     753.0212   -4114.3739 
32031000    102.17326    -5027.996   -4830.9463    -5027.996            0    6834.9241    19.781062    19.775811    20.443987    7997.4123    6014.5165    7567.6275    6922.6282    31.899847   -245.95655   -66.157161   -4033.7614 
32032000    99.371538    -5029.902   -4838.2557    -5029.902            0    6494.8321    19.733886    19.847399     20.41136     7994.442    6582.0842    6216.4826    6685.9294    170.87262    856.23115   -353.95897   -4081.0184 
32033000    102.71619   -5041.9041   -4843.8073   -5041.9041            0    6932.1218    19.829895    19.771257    20.389376    7993.8987    6045.7478    7958.4938    6792.1237     7.750471     40.50529    180.21443    -4035.641 
32034000    101.05783   -5050.5626   -4855.6641   -5050.5626            0    4618.3622    19.699344    19.934486    20.446108    8029.1114    5784.3151    3344.5444     4726.227   -234.86578   -773.80119    898.70109   -4314.8707 
32035000    99.790702   -5056.3385   -4863.8838   -5056.3385            0    6777.3648     19.73767    19.853385    20.426161    8004.1863    6810.5865    6335.3889     7186.119   -275.94234    992.85495   -321.49787   -4072.7427 
32036000    95.896202    -5041.601   -4856.6571    -5041.601            0     6491.523    19.783882    19.781946     20.44978    8003.3014    7013.1631    6875.6101    5585.7957   -141.06075    769.51521    782.98411   -4098.9669 
32037000    100.59145   -5036.4215   -4842.4224   -5036.4215            0    7330.4725    19.748454    19.769862    20.393132    7961.9724      6367.48    7147.8956    8476.0421    548.76031    420.33147   -404.53529   -3991.2285 
32038000    102.47172   -5035.2784    -4837.653   -5035.2784            0      6113.73    19.926355    19.752308    20.323329    7999.0898    5592.8812    6688.2627     6060.046    -517.1344   -413.57116   -924.06892   -4124.4343 
32039000    98.435769   -5039.7245   -4849.8828   -5039.7245            0    7211.2089    19.751439    19.795177    20.410651    7980.2222    6250.8927    7772.0165    7610.7176    164.34182    295.82878   -339.46023   -4010.6181 
32040000    100.28258   -5039.1164   -4845.7131   -5039.1164            0    7487.2422    19.667291     19.68319     20.62505    7984.2668    7299.6655    8244.1348    6917.9264   -652.79537     739.0283    52.798727    -3973.881 
32041000     105.5175   -5043.2801   -4839.7807   -5043.2801            0    7894.0966     19.71791    19.750973    20.461005    7968.4954    9125.0605    7490.7963     7066.433    468.11027    95.445541   -831.17684   -3922.3893 
32042000    99.256803   -5041.7678   -4850.3427   -5041.7678            0    5714.1854    19.882321    19.690055    20.503628    8026.8419    4565.0704    7588.5405    4988.9454   -453.54659    210.37719    244.68649   -4181.4215 
32043000    102.56018   -5036.7835   -4838.9876   -5036.7835            0    5852.0767    19.799839    19.928105    20.327637     8020.742    6121.4671    5317.6874    6117.0755   -269.23372   -614.92276   -685.38482    -4154.445 
32044000    99.709579   -5046.2332   -4853.9349   -5046.2332            0    7159.8128     19.58767     19.95299    20.409081     7976.534    6250.1583    7428.3628    7800.9174   -123.88273    91.955351    458.75982    -4021.037 
32045000    97.315481   -5050.3866   -4862.7056   -5050.3866            0    5577.0347    19.737047    19.765832    20.546244    8015.4834    5015.0448    6333.6895    5382.3697   -558.09329    645.27557    142.26838   -4210.7636 
32046000    101.35757   -5049.3793   -4853.9026   -5049.3793            0     6592.349    19.703495    19.894845    20.375091    7986.9946    8134.4113    5028.1429    6614.4927    388.37819    1292.8888    596.41704   -4086.0118 
32047000    94.908634   -5030.6383    -4847.599   -5030.6383            0    6804.8508    19.853354    19.811413    20.351935    8004.8836    6359.2526       6743.8    7311.4997   -275.90003    156.18235   -701.49819   -4053.1802 
32048000     98.99397    -5048.741   -4857.8228    -5048.741            0    7168.4646    19.666372    19.849768    20.433286    7976.6016     8222.424    6772.0316    6510.9381   -494.72991    98.853159    335.05123   -4023.9114 
32049000    105.13936   -5050.0278   -4847.2577   -5050.0278            0    5799.8269     19.92496    19.708453    20.483453    8043.6501    4966.7105    6744.8509    5687.9194    189.20156   -533.76746    -328.5648   -4166.8894 
32050000    100.92683   -5046.7584   -4852.1126   -5046.7584            0    8657.7865    19.614275    19.760766    20.466462    7932.6593    8966.6182    8727.0224     8279.719   -159.80656    394.20169   -113.00629   -3850.4958 
32051000    110.55826   -5032.8063   -4819.5854   -5032.8063            0    6243.0536    19.825012    19.783934    20.421419    8009.6222    5872.7967     6473.866    6382.4981   -223.34947    609.22608    -291.0951   -4090.3211 
32052000    97.850696    -5042.713   -4853.9997    -5042.713            0    6557.3352    19.821181    19.764591    20.409266    7995.4837    6407.1726    6151.5799    7113.2532   -97.566269    701.13778   -231.84934   -4089.3755 
32053000    99.790162   -5047.2413   -4854.7875   -5047.2413            0    6644.1834    19.833445     19.88344    20.226919    7976.6294    7783.8504    4284.0389     7864.661   -551.44202   -49.726016   -565.67317   -4081.8633 
32054000    104.72055   -5036.0286   -4834.0662   -5036.0286            0    6722.3708    19.835845    19.757438    20.426362    8005.2031    7610.7597    6104.7592    6451.5934    41.756897    824.15487    465.98833   -4049.2451 
32055000    101.47012   -5039.1546    -4843.461   -5039.1546            0    7699.8884    19.877308    19.717865    20.401157    7995.9898    6414.1622    8587.9188    8097.5841   -217.20986    1053.3442    412.78465   -3945.5515 
32056000    109.10256   -5039.4412   -4829.0278   -5039.4412            0    6276.7846     19.78673    19.871036      20.3697    8009.0164     6910.622    5456.7368    6462.9951   -131.91921   -54.295216   -808.92433   -4095.8787 
32057000    96.445324   -5041.0775   -4855.0746   -5041.0775            0    7354.7151    19.806961     19.78193    20.343592    7971.0243    6465.8122     7730.282    7868.0512    75.089675    807.06096    82.555772   -4000.0947 
32058000    98.595588   -5031.3735   -4841.2236   -5031.3735            0    6926.2828    19.563676    19.916895    20.420583    7956.8328    7519.3232    6688.3645    6571.1607    543.15296   -524.46333    104.01213   -4037.4822 
32059000    97.668886   -5033.1513   -4844.7886   -5033.1513            0    6526.0253    19.912676    19.552512    20.544964    7999.0341    5996.4778    7845.8207    5735.7773   -241.34815    1202.4305   -132.32831   -4083.4775 
32060000    101.95967   -5039.9476   -4843.3098   -5039.9476            0    7164.0837    19.570204    19.841402    20.503488    7961.5101    7891.9762    6424.4577    7175.8173   -303.39601    614.89064    22.803342   -4011.4847 
32061000     102.7112   -5040.0037   -4841.9165   -5040.0037            0    6107.5659    19.758117    19.769088     20.48219    8000.3424     5283.318    6866.0541    6173.3255   -25.997104    473.03307    157.74191   -4129.3053 
32062000    104.80806   -5026.8817   -4824.7505   -5026.8817            0     7736.933    19.720338    19.858148    20.375369    7979.1858    8153.6505    7207.1318    7850.0168    151.20642    607.31163    8.4240917   -3924.4172 
32063000    108.63384    -5042.405   -4832.8955    -5042.405            0    7096.3089    19.706626    19.882768    20.309746     7957.811    6695.9281     7810.422    6782.5764    -222.3716    1231.9048   -351.21746   -4009.3227 
32064000    101.66486   -5039.1193     -4843.05   -5039.1193            0    7550.7633    19.759335    19.847544    20.366569    7987.2442    7861.5548    6992.3546    7798.3805    398.14353   -895.27492    1468.3145   -3963.4936 
32065000    98.738651   -5038.4694   -4848.0436   -5038.4694            0    6081.1961    19.913113    19.858227    20.234848    8001.6507    6212.8143    5820.4105    6210.3636   -546.82499    1328.1935   -882.27808   -4138.3931 
32066000    106.28193   -5032.4309   -4827.4573   -5032.4309            0    5618.4256    19.762253    19.787998    20.443187    7994.4196    4391.2567    5659.2817    6804.7384   -121.12151    451.22281    -151.1348   -4172.4028 
32067000    97.897728   -5040.1693   -4851.3653   -5040.1693            0    6752.0467    19.696373    19.831803    20.469472    7995.6744    7399.8482    5846.8406    7009.4512    164.12862    136.05653     433.6522   -4064.0179 
32068000    99.450363   -5031.7964    -4839.998   -5031.7964            0     8610.855    19.761861    19.731247    20.361416    7939.4485    9325.0867    8122.1343     8385.344    -519.7973    446.87951    -40.67898   -3842.9582 
32069000    99.243151   -5049.1031   -4857.7043   -5049.1031            0    6509.1356    19.683286    19.774057    20.504334    7980.6643    7612.9878    6350.9859     5563.433   -350.41182    -81.01132     685.4827   -4100.1073 
32070000    104.45498   -5039.0355   -4837.5853   -5039.0355            0     7309.734    19.681467    19.851143    20.359327    7954.3811    8247.8214    6392.5533    7288.8272    -195.9551    107.00237   -335.96326   -3989.6087 
32071000    105.82499   -5048.6197   -4844.5273   -5048.6197            0    6523.3802    19.860289    19.710445    20.472428    8014.0371    6509.0238     7519.001    5542.1159    78.820453    770.05197    1124.8933   -4082.0974 
32072000    104.54217   -5019.8474    -4818.229   -5019.8474            0    7520.2078    19.575623    19.724553    20.700872    7993.0294    8218.2701     8078.299    6264.0545    -36.16285   -3.1778029   -632.34629   -3941.5974 
32073000    97.802327   -5051.9107   -4863.2907   -5051.9107            0    6623.1331    19.835795    19.703253    20.450439    7992.6389    6410.4651    6764.0919    6694.8422    -288.4206    1111.1677    623.19124   -4091.2689 
32074000     100.1568   -5042.8129   -4849.6521   -5042.8129            0    7334.3253    19.680514    19.735093    20.443478     7940.181    6339.4265    8409.9443     7253.605   -617.88487   -634.83096   -370.48927   -4000.3417 
32075000    97.429288   -5039.2795   -4851.3789   -5039.2795            0    5933.7251    19.768273    19.815176    20.490917    8026.5345    6321.9107    6161.2621    5318.0026    113.93638    671.54304    155.74069   -4156.7844 
32076000    99.882115   -5034.2133   -4841.5822   -5034.2133            0    7099.2984     19.70125     19.79678    20.378712    7948.1321    8072.4523    5865.0248    7360.4182    111.03271    -357.0098    294.96281   -4018.6645 
32077000    97.143593    -5048.361   -4861.0114    -5048.361            0    7012.7873    19.633708    19.977759    20.329651     7974.051    7734.1715    6044.1329    7260.0574   -270.28943   -351.43938   -237.21519   -4045.4708 
32078000    103.68299   -5031.7314   -4831.7701   -5031.7314            0    8223.0345    19.819886    19.786697    20.387519    7995.3752    8206.0514    8822.9166    7640.1356   -263.13143   -364.12829   -342.11387   -3872.9285 
32079000    98.642002   -5041.1127   -4850.8734   -5041.1127            0    7657.4843    19.668886    19.885041    20.372032    7967.8399    8235.2633    7023.1631    7714.0266    354.22559   -555.95016    58.544013   -3961.0524 
32080000      104.823   -5031.9214   -4829.7614   -5031.9214            0    7417.4508    19.695863    19.965171    20.242466    7959.9707    8187.9454    6115.6659    7948.7412    469.33802    36.423288    -1172.018   -3968.6843 
32081000    98.432204   -5033.4223   -4843.5875   -5033.4223            0    6309.2987     19.72163    19.898206    20.396899    8004.2539    6667.3496    5625.2166    6635.3298    221.24277   -416.42179     155.2164   -4107.0789 
32082000     99.73531   -5044.0496   -4851.7016   -5044.0496            0    6311.4689    19.742976    19.810358    20.334684    7953.2087    6951.0308    5654.0804    6329.2954   -41.187968    581.95676    214.21786   -4119.6382 
32083000    105.36654   -5042.9229   -4839.7147   -5042.9229            0    6812.6391    19.878951    19.848026    20.247018    7988.6219    5893.7129    7063.0229    7481.1813   -181.82607    669.65899   -1085.9313   -4046.0023 
32084000    107.63666   -5034.5139   -4826.9276   -5034.5139            0    7667.7629    19.816124    19.762572    20.318692    7957.1566    7535.5051     6659.081    8808.7026   -1.3386802    185.37477   -460.48198   -3937.1069 
32085000    102.82396   -5054.1883   -4855.8837   -5054.1883            0    6044.5777     19.75502    19.834283    20.445599    8011.1308      5735.05    6771.2265    5627.4567   -555.13747    -341.2236   -11.445354   -4149.6707 
32086000    103.07487   -5048.3414   -4849.5528   -5048.3414            0    6991.2755    19.890574    19.625242    20.480351    7994.6553    7607.9159    6934.2634    6431.6473    210.91248    326.55616    805.57961   -4034.4131 
32087000    100.30992   -5040.5816   -4847.1255   -5040.5816            0    7324.7222    19.703121     19.76874    20.398717    7945.4202    7654.4411    6725.5235     7594.202    30.519766    253.07784    194.12921   -3998.3674 
32088000    102.00493   -5038.6475   -4841.9224   -5038.6475            0    7040.7277    19.731193    19.780574    20.436677    7976.3194    7078.8637    8022.5555    6020.7639   -277.22024    439.37169    1598.3594   -4022.8996 
32089000    95.512531   -5048.2214   -4864.0175   -5048.2214            0    6276.1073    19.833232    19.816041    20.391408    8014.1525    5965.3176     5818.948    7044.0564    169.81605   -690.05635   -600.23688   -4130.4774 
32090000    99.000077   -5040.5024   -4849.5724   -5040.5024            0    7064.2779    19.751234     19.82659     20.36967    7976.7551     7677.729     5943.767    7571.3379    187.17837     713.6994   -146.38739   -4027.7653 
32091000    99.203236   -5044.7858    -4853.464   -5044.7858            0    6207.9015    19.728043    19.761837    20.546686    8010.3797    6679.5372    6275.9027    5668.2644   -86.570389    185.38212    649.26259   -4128.2373 
32092000    102.19402   -5040.9534   -4843.8636   -5040.9534            0    7552.5723    19.684484    19.719105    20.460361    7941.9024    7638.5301    8122.5894    6896.5976    -292.6052   -267.49505    865.91708   -3969.0907 
32093000    104.15769   -5040.3779    -4839.501   -5040.3779            0      7034.49    19.773765    19.795284    20.428356    7996.2161    7039.5787    6304.0497    7759.8415    310.06454   -765.97555   -596.25733   -4019.1627 
32094000    100.39553    -5039.977   -4846.3558    -5039.977            0    6897.2101     19.85771    19.808257    20.344493    8002.4375    6797.3668    6772.8351    7121.4284     86.04766   -1321.4391   -883.00054   -4041.4007 
32095000    97.996017   -5054.7665   -4865.7729   -5054.7665            0    6191.4221    19.800956    19.919095    20.342497    8023.4294    5093.0313     6440.574    7040.6609   -219.98867   -586.20027    -416.5831    -4141.293 
32096000    103.02103   -5038.5748   -4839.8901   -5038.5748            0     7989.841     19.88424    19.782828    20.247269    7964.5976    8071.5845    7129.4463    8768.4922   -227.78083    360.57617    414.07302   -3911.8262 
32097000    107.89613   -5054.4701   -4846.3833   -5054.4701            0    6578.8574    19.735223    19.902346    20.332762    7986.2462    6476.6596    7492.5949    5767.3176    197.41391   -823.08905   -50.199929   -4080.1358 
32098000    96.387925   -5029.3363   -4843.4441   -5029.3363            0    8025.5745    19.680158    19.807457     20.42803    7963.1299    7954.8344    7597.3422    8524.5469   -41.836214    124.11212   -294.95447   -3911.4013 
32099000     102.1433   -5044.0306   -4847.0387   -5044.0306            0    7258.4832    19.701212    19.822496    20.455362    7988.3749    6208.6309    8354.9619     7211.857   -19.722186    -23.74079    168.59927    -4001.409 
32100000    100.77214   -5037.0016    -4842.654   -5037.0016            0    7338.4096    19.686176    19.834845    20.377792    7956.9626    9158.9716    6137.3774    6718.8799   -610.25686    470.61268    -558.6129   -3991.0746 
32101000       98.923   -5047.9896   -4857.2082   -5047.9896            0    7474.7714    19.762994    19.709967    20.390412    7942.6354    6153.5312    8086.5171    8184.2658    559.81118    1274.2662   -408.99278   -3991.3667 
32102000     104.5676   -5042.6448   -4840.9774   -5042.6448            0    7298.9566    19.842502     19.85074    20.236038    7970.7395     7140.436    6846.0151    7910.4187    -138.7257    1295.0537    501.91588   -3992.5098 
32103000    101.43037   -5036.2764   -4840.6594   -5036.2764            0    5320.1988    19.800914    19.845596    20.437594    8031.1759    4468.6808    5892.0903    5599.8253   -481.79521    939.48719    768.39306   -4217.5234 
32104000    103.31764   -5034.1662   -4834.9094   -5034.1662            0    7315.6976    19.631087    19.786425    20.466305     7949.707    7207.6631    7931.4382    6807.9914    485.90411   -156.02548   -304.64545   -3986.7397 
32105000    105.74165   -5032.4673   -4828.5356   -5032.4673            0    6198.7224    19.825663      19.7765    20.384673     7992.468    5131.6194    6923.9956    6540.5522   -45.912136   -519.61176    196.88155   -4106.0005 
32106000    99.593612   -5044.6974   -4852.6227   -5044.6974            0    7290.3888    19.720863    19.753296    20.430812    7958.8647     7281.822    6927.9301    7661.4144    254.45339     238.3293    931.60874   -4006.4136 
32107000    102.17274    -5041.287   -4844.2383    -5041.287            0    6901.3491     19.84262    19.780611    20.412447    8011.8683    6731.4813    6958.3113    7014.2546   -397.07025    1533.1015   -37.866795    -4037.851 
32108000    101.62537   -5034.3758   -4838.3827   -5034.3758            0    7827.3601    19.626739    19.852302    20.439034    7963.7825    8325.7806    7013.2287    8143.0711   -264.08474    164.12176   -405.90626    -3929.285 
32109000    101.17072   -5040.2844   -4845.1681   -5040.2844            0    6158.1416    19.559978    19.849803    20.531412    7971.5611    6988.2203    6002.3492    5483.8553     171.4694     989.8567    256.62067   -4129.2408 
32110000    104.44941   -5037.5825    -4836.143   -5037.5825            0     7165.723    19.948923    19.557353    20.520098    8005.8776    5446.8162    8859.6208     7190.732   -209.40386   -56.333453    947.65951    -3999.491 
32111000    102.60213   -5034.1393   -4836.2625   -5034.1393            0    5733.1248    19.760319    19.763282     20.57548    8035.3169    5255.4508    6214.7169    5729.2065   -507.16372     243.4486     538.0155   -4164.4156 
32112000    99.088277    -5027.923    -4836.823    -5027.923            0    6748.1039    19.919384    19.659616    20.385864    7983.2559    4728.3092    8176.4176    7339.5849    -92.27927    125.43007    21.624672   -4051.1574 
32113000    98.802111   -5043.6004   -4853.0523   -5043.6004            0     6873.443    19.605553    19.820676    20.517927    7973.1704    6386.7527     7783.308    6450.2684   -233.72243   -267.63747   -540.64202   -4053.8048 
32114000     100.0971    -5028.806   -4835.7604    -5028.806            0    7534.7575    19.722652    19.700844    20.445514    7944.1638    8009.5417    7743.0833    6851.6476   -356.21683    -503.8504    518.60155   -3962.8023 
32115000    103.68212   -5044.7563   -4844.7967   -5044.7563            0    5917.5217    19.863684    19.797218    20.358982    8006.0819    5197.0422     6120.019     6435.504   -33.685401   -102.09897   -193.98655   -4153.8639 
32116000    96.439509   -5043.1288   -4857.1371   -5043.1288            0    6749.7837    19.814597    19.893372    20.303519    8003.2238    8049.2978    5612.6129    6587.4403    658.12487    537.41031    733.98346   -4069.3104 
32117000     101.2987   -5054.5925   -4859.2295   -5054.5925            0    6921.9899    19.697949     19.87288    20.389926    7981.7379    6386.6816    7275.3959    7103.8922    60.476344    435.25476    1150.2812    -4053.472 
32118000    99.046551   -5040.1275   -4849.1079   -5040.1275            0    7211.2422    19.679952    19.895882    20.365809    7974.2325    6539.6577    7565.2921    7528.7768    -184.2832   -158.35865   -157.12759   -4010.4693 
32119000     98.22948   -5049.8815   -4860.4377   -5049.8815            0    6074.7178    19.792519    19.851758    20.479539    8046.7448    5332.0336    6582.7441    6309.3758     57.50423    416.40964   -335.38851   -4147.5482 
32120000    101.35244     -5037.78   -4842.3133     -5037.78            0    7319.1083     19.64273    19.861686    20.448503    7977.7326    8290.4259    6472.2319    7194.6672   -6.5735334    300.28275    -459.5926   -3990.7566 
32121000    99.255144   -5044.0713   -4852.6494   -5044.0713            0    7116.0312    19.772025    19.756479     20.31603    7935.9611    7514.1156    6921.6566    6912.3213   -197.51904   -173.11138   -414.05348   -4029.0553 
32122000    101.05575   -5028.5132   -4833.6187   -5028.5132            0    6149.7855    19.727258     20.00625    20.185708    7966.6621    5494.6511    5615.5274     7339.178    324.08041    167.37098   -407.96304   -4119.1022 
32123000    98.590948   -5038.1423   -4848.0013   -5038.1423            0    5656.4017    19.790282    19.815813    20.431267    8012.3364    6430.7703     5123.161    5415.2738    97.210851    473.35488    69.475163   -4187.0411 
32124000    97.838623   -5033.4538   -4844.7638   -5033.4538            0    7581.0025    19.742987    19.773809    20.467353     7990.333    8220.9536    7605.5047    6916.5492   -96.619215    -556.2037     596.3413   -3961.3434 
32125000    99.165591   -5027.3917   -4836.1425   -5027.3917            0    7005.1131    19.705369    19.765089    20.557648    8006.7597    8497.5565    5092.5915    7425.1913   -87.438631    565.47947   -204.64607   -4018.1528 
32126000    99.225639   -5053.0274   -4861.6624   -5053.0274            0    6009.9848    19.757531     19.67866    20.610369    8013.3474    6533.9483    6387.5048    5108.5012     126.5283    16.219462   -198.05267   -4159.2968 
32127000    102.27645   -5044.3416   -4847.0928   -5044.3416            0    7202.9648    19.699776    19.761991    20.458145     7964.495    7076.1352    7218.2478    7314.5113   -56.130628   -143.22292   -43.406425   -4010.4397 
32128000     100.0984   -5043.6541   -4850.6059   -5043.6541            0    6658.1685    19.836288    19.810934    20.326316    7987.7418    6284.0892    5980.5166    7709.8998   -79.188295    401.18969    525.82343   -4074.9757 
32129000    109.32523   -5031.5268   -4820.6839   -5031.5268            0    7867.0457    19.855317    19.625926    20.341562    7926.6793    6983.1227    8680.4282    7937.5862   -510.69667    294.69961    566.82561   -3911.2338 
32130000    96.244756   -5046.7868   -4861.1707   -5046.7868            0    6728.8934    19.661509    19.821233    20.493719    7986.7169    7474.7205    6322.1544    6389.8051    274.50594    398.08478    -440.4596   -4077.4022 
32131000    94.224959   -5048.4441   -4866.7233   -5048.4441            0    6228.8554    19.898218    19.772155    20.453846    8047.1703    6529.9423    5820.7722    6335.8518    237.45191    322.00878   -285.10859   -4135.7066 
32132000    97.906453   -5020.4867   -4831.6659   -5020.4867            0    5810.6703    19.794327    19.728695    20.493882    8003.1938     5579.425    6178.8066    5673.7793   -638.51178    502.49929    588.63301   -4153.4539 
32133000    102.41992   -5026.1385    -4828.613   -5026.1385            0    7676.4923    19.781033    19.694613     20.45989    7970.7597    6771.5285    8700.9495    7556.9989    51.567935    837.12242   -664.70511   -3936.2565 
32134000    99.194943   -5040.0601   -4848.7543   -5040.0601            0    7991.7956     19.82971     19.66965    20.394667    7954.8065    7865.2009    7385.7449     8724.441   -148.88606   -155.82034   -1011.9957   -3921.6046 
32135000     95.26351   -5031.8541   -4848.1304   -5031.8541            0    7147.3456     19.82205    19.814667    20.311576    7977.7234    6845.2901    6610.3075    7986.4392   -394.62325    934.73304    711.96388   -4016.5588 
32136000    104.81034   -5044.5601   -4842.4246   -5044.5601            0    6644.5385    19.690551    19.725596    20.510339     7966.377     7841.638    5565.4093    6526.5683   -396.72851    89.776486   -447.97232   -4070.4525 
32137000    100.56076   -5048.3859    -4854.446   -5048.3859            0    6811.3473    19.685656    19.732252    20.576649    7992.8413    6746.9757     7906.597    5780.4692    537.74401     635.9367    474.59273    -4060.465 
32138000    100.95952   -5049.5727   -4854.8638   -5049.5727            0    6732.8957    19.815025    19.768506    20.463417    8015.7955    6152.6453    6795.0809     7250.961   -301.70606   -604.96865    191.79996   -4067.7738 
32139000    95.887058   -5045.0091   -4860.0828   -5045.0091            0    7896.5284    19.846982    19.750898    20.336289    7971.7383    8210.1991    8217.1159    7262.2701   -224.11798   -89.162335    113.00954   -3942.0354 
32140000    105.07226   -5040.6545   -4838.0138   -5040.6545            0    6841.7101    19.687052    19.760046    20.466045    7961.6406    6245.2642    7574.4836    6705.3825   -73.157827    696.85639   -100.59075   -4043.6067 
32141000    104.32484   -5053.1625   -4851.9633   -5053.1625            0    5893.2237    19.840914    19.874512    20.301233    8005.3544    4986.6856    5034.6816    7658.3038   -93.623135    886.10077    194.38649   -4163.9301 
32142000    99.504621   -5036.4815   -4844.5785   -5036.4815            0    6619.3795    19.610027    20.006248    20.347004     7982.599    5614.0965    7616.6115    6627.4305   -144.88562   -556.98586   -491.99606   -4073.9634 
32143000    94.745443   -5027.9959   -4845.2714   -5027.9959            0    7081.1244    19.661025    19.814491    20.404099    7948.8905    6797.0721    6821.2585    7625.0428   -128.05653   -194.07968    464.21226    -4024.382 
32144000     99.52394   -5036.9098   -4844.9695   -5036.9098            0    6818.0693    19.801673    19.780472    20.380663    7982.8289    7155.4066    6353.5862    6945.2151   -269.45372    243.87142    127.36859   -4051.2005 
32145000    100.41373   -5042.7927   -4849.1364   -5042.7927            0    6331.4238    19.832313    19.736368    20.381896    7977.8374    5167.7097    7001.9356     6824.626    25.547168    97.328404   -21.660127   -4112.4842 
32146000    99.822201   -5041.6945    -4849.179   -5041.6945            0    6615.7718    19.711249    19.702025    20.455607    7943.9658    6484.7102    6481.7431     6880.862   -366.61881    999.19936    174.11018   -4082.7115 
32147000    102.72612   -5055.2033   -4857.0873   -5055.2033            0    5828.0428    19.830925    19.587693    20.560763    7986.6656    6326.0175    5712.1618    5445.9491    217.32026    532.60172   -11.469168   -4178.2525 
32148000    95.720818   -5032.2184   -4847.6128   -5032.2184            0    7744.7981    19.793234    19.612148     20.48339    7951.4026    8335.5523    7401.2945    7497.5476   -83.334953   -539.41038   -511.49246   -3949.5023 
32149000    106.14171   -5042.4521   -4837.7489   -5042.4521            0    7465.3046    19.829408    19.702573    20.421891    7978.6357    7451.7693    7705.6446    7238.4998    155.72622    819.62974    9.3682622   -3969.0844 
32150000    99.549492   -5038.1091   -4846.1195   -5038.1091            0    7472.8122    19.632651    19.791689    20.504534    7967.3101    7942.6143    6802.6691     7673.153      7.46587    1255.3242    52.332295   -3977.8158 
32151000    103.41396   -5027.4369   -4827.9944   -5027.4369            0    7787.4222    19.741255    19.723486    20.462909    7967.5682    7511.9574    7999.0639    7851.2452   -79.607083    203.94613    69.322066   -3923.1052 
32152000    104.43474   -5042.0481   -4840.6369   -5042.0481            0    5159.3055    19.784358    19.808172    20.490148    8029.9247    4497.1605    6010.1258    4970.6301    99.049136   -115.15961    411.99384   -4236.4398 
32153000    101.45364   -5047.7187   -4852.0568   -5047.7187            0    6583.8498     19.80824    19.776253    20.455763    8013.1926     7574.916    5578.0784    6598.5549   -176.95973    20.248017    117.67713   -4082.6405 
32154000    99.500353   -5041.4426   -4849.5479   -5041.4426            0    6690.0188     19.85223    19.893407    20.261684     8001.916    6839.6612    6124.7559    7105.6394    6.1382252   -1451.6504   -46.523476   -4068.8244 
32155000    102.19788   -5045.2912    -4848.194   -5045.2912            0    6594.2752    19.733267    19.888568    20.350093     7986.728    7999.8689     4826.446    6956.5108   -441.59827     449.3957   -83.496376   -4080.1045 
32156000    98.853223   -5052.1584   -4861.5117   -5052.1584            0    4944.3897    19.796875      19.8729    20.449227    8045.1622    6382.5381    3517.4024    4933.2287    40.975971    644.43514     70.64699   -4281.3843 
32157000    101.85542   -5035.4773   -4839.0406   -5035.4773            0    8163.1046    19.660945    19.815498    20.407551    7950.6065    9204.4232    7711.0625    7573.8283   -189.61761   -657.86399   -579.89885   -3892.5169 
32158000    97.094755   -5046.9019   -4859.6465   -5046.9019            0     6095.711    19.860254    19.794273    20.364573    8005.7063    5101.6421    6294.1801    6891.3108    101.44077    293.23578    27.422815   -4147.9417 
32159000    100.98014    -5045.442   -4850.6934    -5045.442            0     7919.283    19.700279    19.836339    20.350802    7952.7149    9304.1847    6540.8135    7912.8508   -245.11841   -2.8034028    124.87389   -3932.1976 
32160000    101.03237   -5039.5268   -4844.6774   -5039.5268            0    6951.6051    19.714563     19.83278    20.456451    7998.3616     6385.245     6802.677    7666.8934   -414.93351    -472.9288    917.16472   -4033.7873 
32161000    97.879844   -5042.6439   -4853.8744   -5042.6439            0     7617.878    19.768324    19.715867    20.500992    7990.2539    8016.7246    7571.7839    7265.1254   -76.200068   -963.62425   -301.74994   -3966.1656 
32162000    102.76809   -5044.8773   -4846.6804   -5044.8773            0    6875.7715    19.795718     19.75372    20.548671    8035.3334    7588.5992    6086.1753      6952.54    135.87156    62.456518     85.84102   -4040.9287 
32163000    104.52399   -5041.9589   -4840.3756   -5041.9589            0    7218.9311    19.755897    19.747216    20.422481    7967.2997    6812.6169    8099.7102    6744.4662   -485.18581    316.94543    206.89618   -4001.5727 
32164000    97.702497   -5039.6994   -4851.2719   -5039.6994            0    7375.2669    19.772193    19.702326    20.531802     7998.332    7381.5279    7539.8405    7204.4322   -332.44667   -788.33684   -1151.3593   -3990.9657 
32165000    103.57924   -5051.3623    -4851.601   -5051.3623            0    6253.5383    19.725193    19.729149    20.629039    8028.0232    5493.1481    7855.0941    5412.3726    131.84258   -409.67262   -127.11776   -4119.4337 
32166000    99.966752   -5035.0938   -4842.2995   -5035.0938            0    6879.9338     19.84689    19.769216    20.370181    7992.3924    6555.1367    7161.3145    6923.3501   -559.24432    120.30385   -732.00621   -4040.3686 
32167000    101.55353   -5038.1388   -4842.2843   -5038.1388            0    6764.3751    19.845388    19.737956    20.369757    7978.9847    7365.6102     5640.678    7286.8371   -123.30615    114.80051    868.57899   -4055.1457 
32168000    106.84318    -5035.686     -4829.63    -5035.686            0    7017.8695    19.660672    19.966413    20.360769    7992.6829    8226.8519    5791.4418    7035.3148    -13.84534    363.12228    443.40909   -4011.5914 
32169000    103.18577   -5032.0914   -4833.0889   -5032.0914            0    6410.1124     19.82786     19.79561    20.431732    8019.5483    5845.4997    7401.4207    5983.4167   -485.33213   -140.09162    694.94795   -4083.3821 
32170000    102.24845   -5038.1553   -4840.9606   -5038.1553            0    6627.4649    19.931727    19.723682    20.306651    7983.0936    5356.7219    8255.0829    6270.5898    380.89248   -278.09023    234.44605   -4069.3564 
32171000    102.80057   -5034.1801   -4835.9206   -5034.1801            0    6777.6892    19.633151    19.908921    20.354048    7955.8858    7125.9992    5905.5476    7301.5209   -646.97513   -610.72965   -196.04113   -4049.5159 
32172000    98.850166   -5041.9808     -4851.34   -5041.9808            0    6192.9499     19.91053    19.741213    20.306842    7981.7665     5543.927     6386.548    6648.3746   -93.039723    588.36861   -223.19485   -4130.4442 
32173000    99.088239   -5047.7111   -4856.6111   -5047.7111            0    6846.2713    19.789949    19.806089    20.422807    8004.9538    6854.2785    6952.5028    6732.0327   -211.69621   -417.99903    339.73375   -4057.3498 
32174000    101.70673   -5040.8402   -4844.6902   -5040.8402            0    6724.4795    19.671168    19.975129    20.339947    7992.2592    6578.4734    6718.9371     6876.028   -498.01999   -385.34976   -628.25332   -4060.8922 
32175000    103.01006   -5047.2653   -4848.6017   -5047.2653            0    7154.7111    19.777378    19.822255    20.382713    7990.6803    7193.9316    7211.7019    7058.4998   -229.07001   -167.50913   -857.77964   -4014.8212 
32176000    100.68522   -5047.1697   -4852.9898   -5047.1697            0    7656.8291    19.785444    19.767733    20.375434    7969.1049    7331.0306    8165.9031    7473.5537   -47.283684    586.51446   -2.6663718   -3963.1037 
32177000    100.19092   -5033.4513   -4840.2247   -5033.4513            0     7254.272     19.87762    19.737633     20.30726    7967.2925    7241.3593    6574.2011    7947.2555    -113.4996   -289.13194    -232.6394   -3997.3161 
32178000    100.36375   -5039.3043   -4845.7444   -5039.3043            0    6282.1731    19.714966     19.92783    20.322578    7984.2632    6211.6262    5624.7448    7010.1482    405.25678    182.28216    100.63699   -4114.2338 
32179000    106.14433   -5038.8221   -4834.1138   -5038.8221            0    7007.9876    19.726237    19.892623    20.358252    7988.7118    7764.2585    6213.2146    7046.4898   -155.04047    161.78758   -207.07346    -4017.633 
32180000    105.97845   -5041.4636   -4837.0753   -5041.4636            0    7141.7257    19.868122    19.731586    20.371823    7986.3566    6256.6247    6718.2342    8450.3181     560.0555    35.839074    236.70439   -4005.2584 
32181000    101.19578   -5043.7564   -4848.5918   -5043.7564            0     7416.373    19.754126    19.734447    20.453933    7973.6948    6153.7816    7684.3333    8411.0041   -45.895341    457.97717   -157.56118   -3986.1555 
32182000    99.918629   -5033.4838   -4840.7823   -5033.4838            0    8010.4992    19.696366    19.740645    20.405979    7934.2316    8705.7911    7020.4827    8305.2238   -67.227484    1071.1228    261.03452   -3913.8664 
32183000     94.07073    -5037.757   -4856.3337    -5037.757            0    6338.7529    19.714034    19.869152    20.404426    7992.4373    6470.2819    6404.7757     6141.201    389.81431    330.54571    -1305.511   -4117.4791 
32184000    98.440123   -5044.6699   -4854.8198   -5044.6699            0    5397.9194    19.816611    19.698364    20.511182    8006.6384    3707.7612    7488.4873    4997.5095   -493.99831    3.5278166   -515.95929   -4224.5123 
32185000     107.5753   -5045.0705   -4837.6025   -5045.0705            0    6327.1947    19.671363    19.802053    20.541184    8001.4766    4819.0458    8069.1505    6093.3876   -398.70736    29.612331   -348.16253   -4099.2611 
32186000    101.65679   -5033.9972   -4837.9436   -5033.9972            0    5893.0312     19.84373    19.712057    20.458873    8002.7078    4819.9404    7259.0428    5600.1106   -125.32588    154.74868    21.856043   -4150.1603 
32187000     99.18221    -5043.255   -4851.9738    -5043.255            0    6546.7234    19.770203    19.873464    20.380254    8007.4512    7581.7954    5080.2087    6978.1659    -64.88022    1944.3169    248.53442   -4087.4444 
32188000    103.33628   -5035.1019   -4835.8092   -5035.1019            0    7697.5086    19.833507    19.693592    20.333241    7942.0218    5968.9197    8996.3449    8127.2613   -259.22028     839.2544    961.30464   -3944.2357 
32189000     99.82294   -5045.5323   -4853.0154   -5045.5323            0    7193.8266    19.630929    19.815604    20.471259    7963.2936    7220.0107    7206.2529    7155.2161    221.36613    479.96794    672.37905   -4017.5498 
32190000    104.38765   -5033.4586   -4832.1382   -5033.4586            0    8175.5576    19.948353    19.662103    20.395372    7999.6066    6066.3094    9687.3559    8773.0074    -440.3021    109.13167    310.61592   -3878.3282 
32191000    102.64462   -5039.5508    -4841.592   -5039.5508            0    6260.0914    19.632292    19.798147      20.5227    7976.8243    6783.6085    5993.5913    6003.0743   -226.66327    589.94196    104.98139   -4113.3318 
32192000    103.92235    -5044.341    -4843.918    -5044.341            0    6582.7678    19.793765    19.825089    20.407946    8008.3464    6453.2783    6230.6732    7064.3518   -75.422787   -980.05175    187.93208   -4075.0934 
32193000    102.84201   -5042.5434    -4844.204   -5042.5434            0    6720.4527    19.803811    19.747783    20.470257    8005.5359    6696.5536    6970.8576     6493.947    172.92101   -474.05377    151.68312   -4059.5741 
32194000    99.767166   -5034.8013    -4842.392   -5034.8013            0    5116.1836     19.79193    19.835871    20.509059    8051.6548     4316.246    6453.9888    4578.3161   -178.25691   -183.67795    466.77292   -4241.6235 
32195000    103.05343   -5043.5594   -4844.8122   -5043.5594            0     6567.375    19.747152    19.776474    20.423631     7976.021     5972.969    7186.6249    6542.5311    106.89749   -120.53058    544.78311   -4080.8814 
32196000    97.913465   -5036.6003   -4847.7659   -5036.6003            0    6709.3595    19.896232    19.704028    20.421169    8005.8318    6188.3613    7305.1276    6634.5896   -45.362185   -125.34828    1497.4819   -4064.4023 
32197000     105.6327    -5049.672   -4845.9504    -5049.672            0    7200.0367    19.766806    19.774973    20.433831    7987.3406    6121.7797    8690.8079    6787.5226    -175.7715    701.22463    162.66039   -4007.2385 
32198000    102.17598   -5042.1666   -4845.1116   -5042.1666            0    6271.1019    19.767488    19.771463    20.499024    8011.6777    5828.5704    6251.3083    6733.4271    -206.1962     1050.531   -383.50499   -4112.3829 
32199000    105.24579   -5040.4889   -4837.5135   -5040.4889            0    7407.2031     19.74582    19.809121     20.47741    8009.6845    7974.4918    7593.0055    6654.1119    111.32329    1063.9397    481.04931   -3972.2556 
32200000     101.7309   -5040.7177   -4844.5211   -5040.7177            0    7755.8824    19.549248    19.747233    20.519319    7921.3507    9870.0883    6850.0473    6547.5115    154.97559   -283.36552    291.40397   -3948.5245 
32201000     100.3099   -5039.9019   -4846.4458   -5039.9019            0     7735.163    19.887383    19.775877    20.294449     7981.613    7934.5048    7662.8275    7608.1569   -399.32856   -226.48365    -66.44096   -3946.0447 
32202000    99.391157   -5029.0385   -4837.3543   -5029.0385            0     7719.555    19.635939    19.771939    20.361912    7905.3211    7887.5721    7734.5004    7536.5926   -622.46713    138.88475    187.45658   -3947.3591 
32203000    101.43788   -5045.5549   -4849.9234   -5045.5549            0    6977.9752    19.689185     19.80888    20.365822    7943.0925    6363.6571    7184.3466     7385.922    101.44435   -555.69634   -636.67098   -4041.5818 
32204000    99.076606   -5047.4937   -4856.4161   -5047.4937            0     7287.611    19.815386    19.633964    20.507606    7978.5779    7376.4803    8101.6666    6384.6861   -247.17304     891.8058    871.69647   -4008.4342 
32205000    98.224049   -5047.0886   -4857.6552   -5047.0886            0    5740.9678    19.689044    19.751749    20.534319    7985.6539     7497.598    4352.7456    5372.5599   -75.587851    481.15099    496.41631   -4189.0474 
32206000     98.47984   -5043.1763   -4853.2496   -5043.1763            0    7589.5278    19.673091    19.777733    20.476472     7967.173    8065.2209    6870.9017    7832.4609   -371.71806    -566.6301   -294.41017   -3971.3993 
32207000    98.846739   -5038.0907   -4847.4565   -5038.0907            0    6568.2566    19.773249    19.813221    20.405849    7994.4349    5563.5662    7182.3842    6958.8195   -226.12199    558.56058   -538.69461   -4081.6593 
32208000    101.39724   -5039.9857   -4844.4326   -5039.9857            0    5515.4882    19.748829    19.821651    20.460757     8009.453    6219.3449    4705.3428    5621.7771   -66.886372    190.50483    584.47317   -4200.1703 
32209000    99.068635   -5034.5445   -4843.4823   -5034.5445            0    7131.4968     19.71145    19.732559     20.46345    7959.4094    5519.7051    8740.6539    7134.1315   -351.41736    327.16098    298.36174   -4015.6594 
32210000    106.63083   -5038.5841   -4832.9376   -5038.5841            0    7271.9068    19.762737    19.802833    20.433284    7996.7328    7219.1974    7591.8919    7004.6311   -431.56238    1031.7881    36.110835   -3984.8577 
32211000    103.97678   -5046.3719    -4845.844   -5046.3719            0    7541.1045    19.788852    19.787629      20.4617    8012.2796    7533.3647    7630.5814    7459.3675    261.39436   -296.99405   -183.52066   -3964.6593 
32212000    100.43494   -5034.6482    -4840.951   -5034.6482            0    7262.2458    19.594217    19.807513    20.461567    7941.3944    8317.0665    7552.5516    5917.1193   -359.62367   -882.00132   -1258.6882   -3999.8588 
32213000    108.11715   -5044.3483   -4835.8353   -5044.3483            0    7077.0528    19.777676    19.739785    20.488263    7998.7627    7044.3377    7330.6644    6856.1564    2.4702663     562.6156    765.65147   -4010.2706 
32214000    109.02972   -5052.5596   -4842.2866   -5052.5596            0     7051.917    19.825949    19.613521    20.531847    7983.9459     5594.538    7620.1553    7941.0576    282.33554    85.242369   -421.92418   -4021.1779 
32215000    97.065708   -5047.1066   -4859.9072   -5047.1066            0    7734.0779    19.759124    19.703835    20.458304    7965.0422    8353.5118    6962.2388    7886.4832   -343.65564    206.59613   -1360.6628   -3961.5015 
32216000    98.862446   -5043.2573   -4852.5927   -5043.2573            0    7179.9837    19.746139    19.758619    20.504245    7999.8633    7466.9383    7360.0189    6712.9939    52.606374    1737.2377    582.66746   -4014.9055 
32217000    93.969845   -5042.6558    -4861.427   -5042.6558            0    6230.1764    19.915162    19.587911    20.561061    8020.7967    6033.3966    6988.7177    5668.4149    -363.5553    1470.3069   -1017.2075   -4132.6515 
32218000    105.95075   -5043.6875   -4839.3526   -5043.6875            0    6766.6282    19.669474    19.788749    20.533243    7992.2421      7287.25    6874.3293    6138.3052   -480.03312    71.188085   -1036.7269   -4050.6435 
32219000     102.5403   -5044.6555   -4846.8979   -5044.6555            0    5803.4825    19.704447    19.762062    20.668705    8048.4045    7197.6766    5214.8045    4997.9664   -61.692251     706.9899   -345.04385   -4165.6983 
32220000    97.279318   -5045.4709   -4857.8596   -5045.4709            0    7009.6985    19.839081    19.724889    20.458348    8005.8361    7432.2793    5792.6189    7804.1974   -36.944572   -507.15036    149.20018   -4039.4289 
32221000    98.904794   -5040.3368   -4849.5906   -5040.3368            0    5825.6753    19.783445     19.69094    20.551005    8005.7393     5950.059     6133.473    5393.4939    255.20809    212.62092   -68.079593   -4169.4109 
32222000    102.00997    -5042.792   -4846.0572    -5042.792            0    8784.7767    19.700921    19.685289    20.439249    7926.7154    10354.868    8672.9734    7326.4886      213.643    774.91832    512.59638   -3830.5106 
32223000    99.241802   -5044.4239   -4853.0278   -5044.4239            0    7052.4697    19.692582    19.764006    20.487196     7973.705    6199.1633    8045.9446    6912.3012   -77.543179    367.90231    624.72749    -4032.908 
32224000    99.994449   -5038.4218   -4845.5741   -5038.4218            0    7607.1888    19.710566    19.823269    20.433282    7983.8525    8833.4324    5760.7123    8227.4217   -240.07825    92.195362   -919.44993   -3959.8212 
32225000    99.598401   -5044.5261   -4852.4422   -5044.5261            0    6762.7114     19.73699    19.688898    20.449512    7946.6717    6411.0764    7917.2436    5959.8142     433.3652    136.37782    627.56632   -4068.6842 
32226000    99.311894   -5034.6014   -4843.0701   -5034.6014            0    7357.7727    19.769674    19.741228     20.41266    7966.6051    7937.7963    7259.6424    6875.8795   -76.766373    1318.1801   -342.63872    -3988.209 
32227000    109.29019   -5031.8869   -4821.1116   -5031.8869            0    7548.5534    19.667914    19.777033    20.553011    7994.5664    9728.9297    5713.5145    7203.2161   -280.50457    146.16966   -157.66213   -3941.0065 
32228000    104.30482   -5034.6592   -4833.4986   -5034.6592            0    7032.2673    19.708662    19.756094    20.469752    7970.2292    6612.6164    7239.4963     7244.689   -337.50688   -885.40324   -767.90738   -4016.0846 
32229000    105.58304   -5049.8542   -4846.2284   -5049.8542            0    5336.3296    19.913882    19.837689     20.34274    8036.3056    6268.1753    3840.8259    5899.9877     -300.019   -565.76238    317.27255   -4220.8038 
32230000     105.4767   -5030.4344   -4827.0137   -5030.4344            0    7881.3297    19.703996    19.727021    20.423761    7938.7393    7771.5239    8215.7654    7656.6999   -111.91867   -495.88591   -8.5657733   -3914.5262 
32231000    104.38766   -5036.2461   -4834.9257   -5036.2461            0    7560.2745     19.75775     19.75372    20.398495    7961.3095    7362.2616    7531.4831     7787.079   -9.7512282   -174.99774   -627.78611   -3957.1209 
32232000    102.62274   -5037.1891   -4839.2725   -5037.1891            0    7501.6166    19.739393    19.848479    20.299026    7953.0961    6974.2601    7664.3666    7866.2232   -440.41621    541.33463   -484.26495   -3969.1769 
32233000    97.056652   -5032.4169    -4845.235   -5032.4169            0    8405.7741    19.773976    19.796483    20.227665    7918.2241    7855.3735    8635.4774    8726.4713   -243.55104   -711.41117    224.06376   -3874.5431 
32234000    101.38039   -5033.8204   -4838.2998   -5033.8204            0    7923.0015    19.798945    19.860248    20.262473    7967.4467    7582.8626    7724.5348    8461.6072   -440.94493     435.6234    838.66099   -3917.6705 
32235000    100.79009   -5050.4089   -4856.0267   -5050.4089            0    7362.5424     19.65125    19.895058    20.404892    7977.5525    7115.4923    6846.1452    8125.9897    398.14089   -305.33896    158.26329    -3999.436 
32236000     95.82864   -5043.0385   -4858.2249   -5043.0385            0    5801.4209    19.836596    19.820328     20.45251    8041.2691    5807.7672    5642.5775    5953.9178    58.018174   -833.56059   -836.66085   -4177.8711 
32237000    102.74812   -5044.3971   -4846.2387   -5044.3971            0    6683.2662     19.62031    19.877412    20.496193    7993.5352    7796.8524    6494.6115    5758.3348   -22.970254   -166.33227    56.957502   -4067.1202 
32238000    102.87432   -5038.1249   -4839.7232   -5038.1249            0    7609.0056     19.61032    19.855476    20.520794    7990.2276    8172.6728    6747.1196    7907.2244    115.19181    1057.9006   -156.91657   -3953.0512 
32239000     99.29464   -5041.0975   -4849.5994   -5041.0975            0    6418.7108    19.671538    19.799055    20.576658     8014.153    7644.2361    6692.6288    4919.2674   -275.52859    220.10567   -252.30333    -4099.392 
32240000    102.93244   -5040.4642   -4841.9504   -5040.4642            0    6608.1015    19.857409    19.764715    20.375897    7997.0513    7103.7518    5917.8882    6802.6644   -525.69017    505.86709     612.8166   -4071.2555 
32241000    94.535344   -5028.6103   -4846.2909   -5028.6103            0    7420.8752    19.882988    19.731124    20.253131    7945.5807    6903.1322    7338.0829    8021.4104    14.315241   -246.35343    110.89978   -3986.3737 
32242000     100.6746   -5045.0433   -4850.8839   -5045.0433            0    5566.6789     19.83767    19.824611    20.445258    8040.5903    7188.9118     4261.843    5249.2818    111.82057    1525.1659    374.07206   -4198.1142 
32243000    102.89767   -5038.6641   -4840.2173   -5038.6641            0    5953.4319    19.787152    19.662207    20.613492    8019.8663    5761.0542    6553.5221    5545.7196   -279.47856   -630.36107    454.70615   -4143.8948 
32244000    103.92876   -5041.1506   -4840.7152   -5041.1506            0    6852.4865    19.795962    19.717195     20.49328    7998.9545    7274.8716    7134.2198    6148.3681    498.82752    141.38423   -981.74262   -4041.3278 
32245000    102.88823   -5027.6721   -4829.2435   -5027.6721            0    6675.6405    19.776045      19.7325    20.479382     7991.686    6176.1807    6972.6369     6878.104   -52.886678   -339.61829    268.39079   -4051.1939 
32246000     102.7398   -5033.3668   -4835.2245   -5033.3668            0    7256.7019    19.629182    19.726093    20.527401     7948.355    7712.4464    7448.5786    6609.0808    -259.4046    132.52035   -784.91134   -3994.0377 
32247000    97.418648   -5039.0069   -4851.1269   -5039.0069            0    6502.8097    19.903482    19.701616    20.490915     8035.118    6468.6223    6745.1178    6294.6889   -124.42611   -433.65659   -85.322608   -4089.1019 
32248000    105.44274   -5042.4933   -4839.1381   -5042.4933            0    6810.8217    19.802789     19.70772    20.551769    8020.6944    7588.8699    7013.2175    5830.3777   -131.36185    410.42533   -506.40748   -4042.4518 
32249000    97.035538   -5043.6584   -4856.5172   -5043.6584            0    6801.9718    19.828748    19.787521    20.389853    8000.1988    5500.5038    7496.7514    7408.6603   -296.60458    438.70796   -848.52777   -4062.8992 
32250000    104.91289   -5024.6316   -4822.2983   -5024.6316            0    7943.8806    19.819182    19.765296    20.276248    7942.8553    6620.8074    8168.9699    9041.8645   -50.539026   -523.35084    551.90428   -3902.0919 
Loop time of 378.5 on 64 procs for 250000 steps with 972 atoms

Performance: 114.135 ns/day, 0.210 hours/ns, 660.502 timesteps/s
193.6% CPU use with 32 MPI tasks x 2 OpenMP threads

MPI task timing breakdown:
Section |  min time  |  avg time  |  max time  |%varavg| %total
---------------------------------------------------------------
Pair    | 28.945     | 35.861     | 41.837     |  70.6 |  9.47
Bond    | 1.0517     | 1.2017     | 1.6988     |  13.1 |  0.32
Kspace  | 166.38     | 175.01     | 185.94     |  39.6 | 46.24
Neigh   | 0.51957    | 0.58036    | 0.63287    |   4.6 |  0.15
Comm    | 64.113     | 70.015     | 75.667     |  35.6 | 18.50
Output  | 0.55698    | 0.55728    | 0.55873    |   0.0 |  0.15
Modify  | 75.143     | 77.141     | 79.005     |  11.7 | 20.38
Other   |            | 18.13      |            |       |  4.79

Nlocal:        30.3750 ave          36 max          26 min
Histogram: 1 2 8 3 4 4 2 4 0 4
Nghost:        2724.19 ave        2749 max        2696 min
Histogram: 3 1 2 2 6 5 4 2 4 3
Neighs:        9885.47 ave       12392 max        7639 min
Histogram: 2 4 5 3 2 3 6 5 0 2

Total # of neighbors = 316335
Ave neighs/atom = 325.44753
Ave special neighs/atom = 2.0000000
Neighbor list builds = 1644
Dangerous builds = 0

unfix		3
unfix		2
unfix		1

write_data	data.final.${pid}
write_data	data.final.1
System init for write_data ...
PPPM initialization ...
  extracting TIP4P info from pair style
  using 12-bit tables for long-range coulomb (../kspace.cpp:340)
  G vector (1/distance) = 0.37252559
  grid = 24 24 24
  stencil order = 5
  estimated absolute RMS force accuracy = 0.0034648891
  estimated relative force accuracy = 1.0434411e-05
  using double precision FFTW3
  3d grid and FFT values/proc = 3211 432
Last active /omp style is kspace_style pppm/tip4p/omp
WARNING: Not all mixed pair coeffs generated from mixing. Use write_data with 'pair ij' option to store all pair coeffs. (../write_data.cpp:312)

write_restart   restart.lmp.${pid}
write_restart   restart.lmp.1
System init for write_restart ...
PPPM initialization ...
  extracting TIP4P info from pair style
  using 12-bit tables for long-range coulomb (../kspace.cpp:340)
  G vector (1/distance) = 0.37252559
  grid = 24 24 24
  stencil order = 5
  estimated absolute RMS force accuracy = 0.0034648891
  estimated relative force accuracy = 1.0434411e-05
  using double precision FFTW3
  3d grid and FFT values/proc = 3211 432
Last active /omp style is kspace_style pppm/tip4p/omp
Total wall time: 0:06:18
