#include		in.partitions
include		in.temp
variable        temperature equal 263.93
variable	tempDamp equal 100.0
include		in.pressure
variable        pressure equal 6000.0
variable        pressureDamp equal 1000.0 # This is 1 ps
include		in.seed
variable        seed equal 745823

units		real
atom_style	full

read_restart	restart.lmp.${pid}
read_restart	restart.lmp.0
Reading restart file ...
  restart file = 30 Jul 2021, LAMMPS = 30 Jul 2021
  restoring atom style full from restart
  orthogonal box = (-0.047383538 -0.049776301 0.091456408) to (20.047385 20.049777 20.608542)
  2 by 4 by 4 MPI processor grid
  restoring pair style lj/cut/tip4p/long/omp from restart
  restoring bond style harmonic/omp from restart
  restoring angle style harmonic/omp from restart
  972 atoms
  648 bonds
  324 angles
Finding 1-2 1-3 1-4 neighbors ...
  special bond factors lj:    0        0        0       
  special bond factors coul:  0        0        0       
     2 = max # of 1-2 neighbors
     1 = max # of 1-3 neighbors
     1 = max # of 1-4 neighbors
     2 = max # of special neighbors
  special bonds CPU = 0.002 seconds
  read_restart CPU = 0.007 seconds
include 	in.setup
variable	out_freq equal 1000
variable	out_freq2 equal 10000
variable	out_freq3 equal 1000

timestep	2.0

neigh_modify    delay 7 every 1

include		in.tip4p
# This is TIP4P/Ice

# create groups ###
group ox type 2
324 atoms in group ox
group hy type 1
648 atoms in group hy

# set charges - beside manually ###
set group ox charge -1.1794
Setting atom values ...
  324 settings made for charge
set group hy charge 0.5897
Setting atom values ...
  648 settings made for charge

# ### TIP3P Potential Parameters ###
pair_style lj/cut/tip4p/long/omp 2 1 1 1 0.1577 8.5
pair_coeff 1 1*2 0.000 0.000
pair_coeff 2 2 0.21084 3.1668
bond_style  harmonic
bond_coeff  1 450 0.9572
angle_style harmonic
angle_coeff 1 55 104.52
kspace_style pppm/tip4p/omp 1.0e-5
pair_modify tail yes

thermo          ${out_freq}
thermo          1000
thermo_style    custom step temp pe etotal epair emol press lx ly lz vol pxx pyy pzz pxy pxz pyz enthalpy

restart 	${out_freq3} restart.lmp.${pid} restart2.lmp.${pid}
restart 	1000 restart.lmp.${pid} restart2.lmp.${pid}
restart 	1000 restart.lmp.0 restart2.lmp.${pid}
restart 	1000 restart.lmp.0 restart2.lmp.0


include         in.dump
dump            myDump all atom ${out_freq2} dump.water.${pid}
dump            myDump all atom 10000 dump.water.${pid}
dump            myDump all atom 10000 dump.water.0
dump            myDump2 all dcd ${out_freq2} dump.dcd
dump            myDump2 all dcd 10000 dump.dcd
dump_modify     myDump append yes
dump_modify     myDump2 append yes


variable natoms 	equal  "count(all)"                        # NUMBER ATOMS
variable H      	equal  "enthalpy/v_natoms"                 # ENTHALPY-per-atom
variable Vol      	equal  "vol/v_natoms"                 # volume-per-atom
fix AVG all 		ave/time ${out_freq} 1 ${out_freq} v_Vol v_H file vol_enthalpy.dat
fix AVG all 		ave/time 1000 1 ${out_freq} v_Vol v_H file vol_enthalpy.dat
fix AVG all 		ave/time 1000 1 1000 v_Vol v_H file vol_enthalpy.dat


timer           timeout 02:55:00 every 1000
New timer settings: style=normal  mode=nosync  timeout=02:55:00

fix 		1 all shake 1e-6 200 0 b 1 a 1
       0 = # of size 2 clusters
       0 = # of size 3 clusters
       0 = # of size 4 clusters
     324 = # of frozen angles
  find clusters CPU = 0.001 seconds
fix             2 all nph aniso ${pressure} ${pressure} ${pressureDamp}
fix             2 all nph aniso 6000 ${pressure} ${pressureDamp}
fix             2 all nph aniso 6000 6000 ${pressureDamp}
fix             2 all nph aniso 6000 6000 1000
fix             3 all temp/csvr ${temperature} ${temperature} ${tempDamp} ${seed}
fix             3 all temp/csvr 263.93 ${temperature} ${tempDamp} ${seed}
fix             3 all temp/csvr 263.93 263.93 ${tempDamp} ${seed}
fix             3 all temp/csvr 263.93 263.93 100 ${seed}
fix             3 all temp/csvr 263.93 263.93 100 745823


run             250000
PPPM initialization ...
  extracting TIP4P info from pair style
  using 12-bit tables for long-range coulomb (../kspace.cpp:340)
  G vector (1/distance) = 0.37136363
  grid = 24 24 24
  stencil order = 5
  estimated absolute RMS force accuracy = 0.0036111123
  estimated relative force accuracy = 1.0874757e-05
  using double precision FFTW3
  3d grid and FFT values/proc = 3211 432
Last active /omp style is kspace_style pppm/tip4p/omp
Neighbor list info ...
  update every 1 steps, delay 7 steps, check yes
  max neighbors/atom: 2000, page size: 100000
  master list distance cutoff = 10.8154
  ghost atom cutoff = 10.8154
  binsize = 5.4077, bins = 4 4 4
  1 neighbor lists, perpetual/occasional/extra = 1 0 0
  (1) pair lj/cut/tip4p/long/omp, perpetual
      attributes: half, newton on, omp
      pair build: half/bin/newton/omp
      stencil: half/bin/3d
      bin: standard
Per MPI rank memory allocation (min/avg/max) = 10.18 | 10.18 | 10.18 Mbytes
Step Temp PotEng TotEng E_pair E_mol Press Lx Ly Lz Volume Pxx Pyy Pzz Pxy Pxz Pyz Enthalpy 
16000000    277.25218   -4676.0757   -4141.3715   -4676.0757            0     4849.713    20.094768    20.099554    20.517085    8286.7659    4650.7582    4132.3668     5766.014    7.6201262   -1299.9067   -338.73004   -3555.2644 
16001000    260.06206   -4691.5151   -4189.9636   -4691.5151            0    3955.8997    20.111599    20.128456    20.443296    8275.7617    5192.5907    1786.8631    4888.2453   -508.75594    153.13544   -310.58502   -3712.5122 
16002000     257.9604    -4686.627   -4189.1287    -4686.627            0    6130.7732     19.96971     19.99681    20.657383    8249.1231    6631.3195    6053.0367    5707.9633    109.27142   -1958.8127    354.17464    -3451.566 
16003000    257.87442   -4691.2582   -4193.9257   -4691.2582            0    5019.2982    19.970077    19.920956    20.851539    8295.2226    5300.9558    6055.8716    3701.0671    306.51151    100.60783   -2128.1486   -3586.7045 
16004000    247.86354   -4705.3986   -4227.3729   -4705.3986            0     5518.518    20.062034     19.94987    20.740815    8301.1996    4176.8904    6599.7065    5778.9572   -345.36746    51.968564   -213.32576   -3559.2764 
16005000    259.97401   -4682.5845   -4181.2028   -4682.5845            0    6332.2217    20.195393    20.169803    20.197555    8227.2136    4180.3053    6570.1105    8246.2492    121.49837    631.41363   -183.06758   -3421.4282 
16006000    273.54149    -4682.728   -4155.1803    -4682.728            0     6194.684    19.922999    20.065057      20.4712    8183.4871    6722.1848    4443.0153     7418.852    1665.8961   -81.598858    569.11617   -3415.8586 
16007000      269.079   -4696.4649   -4177.5234   -4696.4649            0    6936.1672    19.908806     19.79953    20.902471    8239.4405    6030.3981    8544.0647    6234.0387    354.78455   -964.19507   -222.62585   -3344.0472 
16008000    279.63747   -4727.3165   -4188.0121   -4727.3165            0    4120.3367    19.924914    20.066934    20.683463    8269.9092    2933.5183    3362.8053    6064.6864   -361.73716   -39.026352    -127.8673    -3691.066 
16009000    277.25118   -4689.3004   -4154.5982   -4689.3004            0    7191.7972    20.249645    19.817344     20.54902    8246.2017    5182.2655    8988.2013    7404.9248   -400.78408   -263.13629   -571.06087   -3289.6954 
16010000    265.13908   -4691.2924   -4179.9494   -4691.2924            0    4127.9356    19.942212    20.162002    20.719947    8330.9709    4441.7264    3205.6502    4736.4301    112.22011    -756.0272    81.258634   -3678.4108 
16011000    259.96491    -4689.718   -4188.3538    -4689.718            0     6114.065    20.342412    19.568947    20.696828    8238.9847    4489.5795      7796.27    6056.3455    9.0126636    149.75972    273.60775   -3453.7052 
16012000    271.23414    -4659.144   -4136.0461    -4659.144            0    6832.8846    19.877738    20.031896    20.655945    8224.9654    7522.6766    6192.0752    6783.9021   -55.839117    90.810571    351.40966   -3316.4233 
16013000    267.59034    -4652.138   -4136.0675    -4652.138            0    5450.2614    20.148673    20.002143    20.511691    8266.5528    3632.4495    6355.1023    6363.2325    18.064428    1662.2332   -266.63699   -3478.9884 
16014000    259.20911   -4695.3046    -4195.398   -4695.3046            0     5699.937    19.899867    20.096914    20.489425    8194.2522    5141.1625    5879.0246    6079.6239    396.61662    295.83772   -259.72687   -3514.2284 
16015000    273.92093   -4725.1765    -4196.897   -4725.1765            0     4681.431    20.112683    19.897676    20.845849    8342.4179    4573.2793    6516.4057     2954.608   -317.03373   -255.15951   -88.434744   -3627.3278 
16016000    258.57355   -4685.1359    -4186.455   -4685.1359            0    5270.0043    19.977608    20.015614    20.748759    8296.6838    7380.7034    2754.3362    5674.9733    130.92294    756.59876   -1511.0513   -3548.7918 
16017000    273.49471   -4708.8671   -4181.4095   -4708.8671            0    7310.3758    20.149175    19.818392    20.461151    8170.6339    3536.4615    9482.8524    8911.8134   -62.438891    1131.3189    684.21705   -3310.3029 
16018000    254.12078    -4700.235   -4210.1417    -4700.235            0    5522.8951    19.996339    19.953763     20.67436    8249.1152    7703.7411    3800.6929    5064.2514   -409.80999   -1117.0633   -141.86453   -3545.7104 
16019000    255.77785   -4670.0575   -4176.7684   -4670.0575            0    5657.1469    20.053685    19.920392    20.555959    8211.6381    5229.1691    6221.0228     5521.249   -178.55271    831.40581   -557.35504    -3499.278 
16020000    252.67836     -4679.69   -4192.3785     -4679.69            0    5582.8731    19.761228     20.07384     20.78872    8246.5471    6731.4852    5532.8166    4484.3176   -182.97141    191.73996    147.50212   -3520.9407 
16021000    264.39679   -4721.2957   -4211.3843   -4721.2957            0    5860.0545    20.136428    19.802898     20.58983    8210.3933    5563.5792    5485.2674    6531.3169   -1477.2945   -866.95532    499.42542   -3509.7004 
16022000    265.39617   -4688.8854   -4177.0466   -4688.8854            0    6250.5099    20.101863    19.980199    20.399056    8193.0609    5842.1496    4603.7056    8305.6746    708.49226    391.81156   -659.92192   -3430.1894 
16023000    253.14629   -4702.5171   -4214.3032   -4702.5171            0    5477.2806    20.068168    19.949719    20.668174    8274.5925    6998.5758    4648.6534    4784.6127    1104.0689    674.51362   -1304.1356   -3553.3244 
16024000    285.07328   -4690.2169   -4140.4291   -4690.2169            0    5574.0291    20.008487    19.935663    20.771201    8285.2677    6696.1195    5340.6499    4685.3178    56.986309   -1695.6254    282.35647   -3466.9073 
16025000    285.16942     -4698.41   -4148.4368     -4698.41            0    6878.7626    20.235626    19.637311    20.709943    8229.5784    6368.4032    7992.5887    6275.2957   -906.87066    983.96418   -21.174926    -3322.848 
16026000    278.16943   -4684.0247   -4147.5516   -4684.0247            0    6481.7166    19.880299    20.175637    20.616007    8269.0328    8228.8498    4719.7767    6496.5232    223.61019    206.80547    138.05538   -3365.8866 
16027000    271.81589    -4679.884   -4155.6642    -4679.884            0    5011.7996    20.199895    19.951487    20.628351    8313.5952    5794.6556    4868.2814    4372.4619    1439.6588    1812.6209   -1135.2853   -3548.0073 
16028000    269.04136   -4706.3158   -4187.4469   -4706.3158            0    4412.6099    19.939398    20.189074    20.486635    8247.0585    4935.6222    3698.3834    4603.8241    609.54019    157.57889   -300.07213   -3656.7207 
16029000     271.4357   -4694.9724   -4171.4858   -4694.9724            0     5257.642    20.253892    19.898823    20.597595    8301.4199    5448.1173    4532.7235    5792.0851    -313.4262   -88.459248   -1710.9876   -3534.9552 
16030000    275.73997   -4694.1436   -4162.3559   -4694.1436            0    5661.7532    19.952111    20.079268    20.614635    8258.7131    5509.1793     4591.255    6884.8252   -317.46352     720.0617   -1358.7832   -3480.4268 
16031000    270.95892   -4680.1531   -4157.5861   -4680.1531            0    5191.8018    19.997152    19.894004    20.852067    8295.4404    5673.2554    5663.2061    4238.9438    103.28086   -100.48264   -269.93132   -3529.4794 
16032000    272.49082   -4693.2563   -4167.7348   -4693.2563            0    3992.0954    19.906286    19.926038    20.841423     8266.822    4822.4121    3895.3561     3258.518    1051.4486    1216.5717   -292.36425   -3686.4354 
16033000    274.19073   -4694.2606   -4165.4607   -4694.2606            0    5789.7227    19.895522    20.090734    20.550863    8214.5015    6121.3085    5205.1421    6042.7175   -177.82884    -292.2093   -198.47738   -3471.8515 
16034000    259.45017   -4707.6864   -4207.3149   -4707.6864            0    6634.6926    20.074071    19.847494    20.516696    8174.2623    5315.1566    7039.6244    7549.2967    160.93643    505.08146     1108.493   -3416.3717 
16035000    258.76963    -4731.443    -4232.384    -4731.443            0    5083.1155    19.987918    20.267189    20.440393    8280.3811    5457.4005    3976.0146    5815.9313    527.20836    573.51645    305.92981   -3618.5425 
16036000    252.75647   -4701.6033   -4214.1412   -4701.6033            0     6929.719    19.991635    19.969958    20.604926    8226.1482    8243.1502    5698.8657    6847.1412    -188.4692    119.54132   -284.84059   -3382.7832 
16037000    266.34228   -4706.8847   -4193.2212   -4706.8847            0    4848.2447    19.920071    20.041152    20.892827    8340.8588    4285.6754    5734.1729     4524.886   -52.245292     48.81786   -496.28196   -3603.4668 
16038000    270.71232    -4682.801   -4160.7095    -4682.801            0    5946.3797    20.047529    19.992217    20.583177    8249.6253    4207.0062    6589.4552    7042.6777   -429.14936   -285.85323   -553.24526   -3445.2867 
16039000    261.13166   -4708.4617   -4204.8474   -4708.4617            0    5485.3601    19.912586    20.113812    20.673275    8280.0187    5656.8299    5981.0811    4818.1693   -304.76536    108.41302    164.54525   -3542.4595 
16040000    259.79157   -4687.8591   -4186.8292   -4687.8591            0    4679.2931    20.190647    20.245224    20.355538    8320.6145    5126.7587    3360.2558    5550.8647     133.7975   -163.04058    950.70222   -3619.0081 
16041000    277.48107   -4710.1626    -4175.017   -4710.1626            0    6969.3501     19.84601    19.915667    20.759155    8204.9837    8524.1715    6279.0755    6104.8034    322.31249    717.98866    862.91174   -3341.0557 
16042000    262.27104   -4700.0332   -4194.2215   -4700.0332            0     4217.952    19.976599    19.924815    20.890206    8314.9297    6739.0381    3225.0821    2689.7358   -59.943601    176.28147      322.764   -3682.7327 
16043000    271.98276   -4685.6138   -4161.0722   -4685.6138            0    6253.0434    20.047805     20.18894    20.325185    8226.4955    7429.7246    5093.4683    6235.9374   -171.11575    862.03993    473.28204   -3410.8633 
16044000    243.21151   -4691.6019    -4222.548   -4691.6019            0    5657.0678    20.002882    20.035229    20.627218    8266.6116     6382.155    5194.3995    5394.6487   -559.49478   -1378.3125   -319.37819   -3540.5316 
16045000    253.51026   -4713.3181   -4224.4022   -4713.3181            0    6065.2234     19.95018    19.788248    20.968186    8277.8015     5590.299    7763.6415    4841.7298   -160.81574    435.12988    1316.3146   -3492.1888 
16046000    260.79614   -4700.9541   -4197.9868   -4700.9541            0    6168.0963    20.008535    19.919152    20.557882    8193.4065    5905.1313    6798.6191    5800.5386    199.32179    751.19918   -475.06915    -3460.946 
16047000    255.70146   -4680.0269   -4186.8851   -4680.0269            0    5585.6243    19.907015    20.321492    20.459361    8276.6349    6175.5668    6463.6976    4117.6084    430.71124   -458.27605   -338.35027   -3512.6654 
16048000    259.42449   -4720.6886   -4220.3667   -4720.6886            0      4562.46    19.995691     20.02984    20.656423    8273.1145    5998.8776    3143.8678    4544.6345    899.99077    1329.6775   -43.991105   -3669.8836 
16049000    271.94005   -4693.2959   -4168.8367   -4693.2959            0    5818.1224    19.920666    20.026397    20.760835    8282.3098    4773.4953    6037.3778    6643.4941    42.178393    89.286696    1838.5641   -3466.0715 
16050000    266.05544   -4721.9299   -4208.8196   -4721.9299            0    6269.8615    19.974427     19.91292    20.623494    8202.9774    7343.1572    5646.6305    5819.7967    211.63907    703.53124    -1267.279   -3458.7434 
16051000     276.6376   -4645.5427   -4112.0238   -4645.5427            0    6406.9586    19.981503    20.084897    20.545944    8245.6303    7090.3523     5030.924    7099.5996    234.80637    299.23899    441.71826   -3341.5611 
16052000    257.94591    -4700.441   -4202.9706    -4700.441            0    6848.0714    19.982101    20.003826    20.665191    8260.2584    6837.0237    6688.5858    7018.6048   -342.39522   -455.98309   -11.563262   -3378.0012 
16053000    246.77226   -4697.8595   -4221.9385   -4697.8595            0     6426.387    20.081839    19.794782    20.671694    8217.3212    7083.5173    7448.4443    4747.1993    405.16986    -370.5095    213.36682   -3451.7925 
16054000    262.63794   -4660.1818   -4153.6625   -4660.1818            0    4499.5189    19.928751    20.059009    20.596086    8233.3057    4636.4645    3446.1215    5415.9706    433.32305     113.7489    270.61311   -3613.3858 
16055000    265.18484   -4698.9062   -4187.4749   -4698.9062            0    4047.6467    20.075452    20.065451    20.759619     8362.452    4756.8283    3472.0259    3914.0859    169.04018   -166.71321    221.53184   -3693.8329 
16056000    275.94766   -4666.7354   -4134.5472   -4666.7354            0    6895.6108     19.89557    19.852101     20.93677    8269.3721      8027.03    7870.2609    4789.5416   -623.63612    1196.9966   -1351.1757   -3302.9344 
16057000     259.8169   -4720.1915   -4219.1128   -4720.1915            0    5848.0343    19.939969    19.992488    20.679354    8243.8162    7093.4543    5573.6126     4877.036    -391.8753     -941.626   -440.99384   -3516.0176 
16058000    265.93488   -4695.8113   -4182.9335   -4695.8113            0    3344.6074    20.120663    19.837331    20.886163    8336.5082    3004.9453    3066.7805    3962.0964    141.44854    348.12889   -318.71194   -3776.2981 
16059000    259.84929   -4694.9288   -4193.7876   -4694.9288            0    6596.7946    19.752712    20.303371    20.562786    8246.6361    6529.3725    5640.4463     7620.565    191.29807   -99.730839   -898.91496   -3400.3995 
16060000    263.98822   -4701.4968   -4192.3733   -4701.4968            0    5612.9204    20.137452    19.859163    20.657654    8261.2632    5101.2873    5965.5615    5771.9125    932.05643     967.2907    887.38303   -3516.1172 
16061000    264.11263   -4683.9301   -4174.5667   -4683.9301            0    5048.4378    19.827649    20.021313     20.72828    8228.6207    4272.6704    5878.4704    4994.1726     181.1835    834.27759   -1715.4074   -3568.7239 
16062000    271.74413   -4659.9737   -4135.8923   -4659.9737            0     7218.688    20.107669    19.734467    20.759111    8237.5083    6412.7838    7901.3507    7341.9295    280.29959    648.40619   -56.492793   -3268.6708 
16063000    275.37746   -4690.1284   -4159.0398   -4690.1284            0    6496.1867    19.844741    20.171224    20.532294     8218.928    8191.4489    4466.3229    6830.7882    -667.1482    202.27943    1548.0964   -3380.3767 
16064000    257.78289   -4692.8412   -4195.6852   -4692.8412            0    4566.4095    20.012711    20.054423    20.658967    8291.3394    5867.9223    3685.9518    4145.3545   -767.01955   -420.27266   -439.89711   -3643.5119 
16065000    257.59357   -4694.2547   -4197.4639   -4694.2547            0     6098.518    19.813532    20.248173    20.688603    8300.0157    8697.1438    5086.2708    4512.1392   -138.08703    84.145995   -1102.9482   -3459.2553 
16066000    270.79886   -4650.4467   -4128.1883   -4650.4467            0    8261.4068    20.129295    19.808233    20.503902     8175.434    7484.1257    8331.3903    8968.7044   -306.14449    315.05465   -540.99953   -3143.1782 
16067000    258.10493    -4708.639   -4210.8619    -4708.639            0    5418.2119    20.097561    20.006543    20.687762    8318.1918     4618.552    6103.4919    5532.5918    13.954648   -1223.7019    475.99869   -3553.5662 
16068000     266.6628   -4706.9484   -4192.6668   -4706.9484            0    4402.2482    20.078749    20.031262     20.57756    8276.3501    4125.3333    4380.4148    4700.9965    99.518082    677.30881    289.02217   -3661.3063 
16069000    244.48419   -4696.7727   -4225.2644   -4696.7727            0    4996.6719    19.738376    20.176869    20.725888    8254.2637    6412.2426    3184.3043    5393.4688     602.6186   -235.26774    307.06869   -3623.7652 
16070000    258.93838    -4676.605   -4177.2205    -4676.605            0    5046.8679    20.046468    19.910637    20.736178    8276.5954    4260.7982    5577.0923    5302.7132   -53.835018    1468.8135    1900.7465   -3568.0351 
16071000    261.24649   -4680.5629   -4176.7271   -4680.5629            0    6139.6398    19.892639    19.923634    20.794212    8241.4459    6797.3992     5660.011    5961.5093   -129.70024    856.45431   -633.48621   -3438.7851 
16072000    280.29177    -4659.314   -4118.7478    -4659.314            0    3737.6044    19.918836    20.093623    20.807893    8328.1842     2541.002    5566.8847    3104.9264   -233.75977   -360.65939    394.50205   -3664.7857 
16073000    258.30001   -4723.9339   -4225.7806   -4723.9339            0    5902.6124    20.095672    20.089104    20.580081    8308.2621    6849.1773    5370.8574    5487.8025    170.36699   -226.37906   -392.09508   -3510.5759 
16074000    257.76749   -4703.8816   -4206.7553   -4703.8816            0    7763.1966    20.054159    19.745028    20.589053    8152.6459    6926.6018    8760.5569    7602.4312    515.86761   -970.34505   -98.260644    -3283.727 
16075000    272.56521   -4721.5033   -4195.8384   -4721.5033            0     5350.142    19.938933    19.805326    20.881582     8246.076    4756.9222    6603.3476    4690.1564   -850.84665    999.88358    897.24582   -3552.4273 
16076000    267.64408   -4704.7873   -4188.6132   -4704.7873            0    5858.5656    20.084038    19.933213    20.597651    8246.0515    3320.7775    8342.0926    5912.8267   -148.87926    1534.9725    571.20694   -3484.0609 
16077000    240.66926    -4692.236   -4228.0851    -4692.236            0    6150.9725    19.838182    20.144977     20.59286     8229.725    7742.0105    3670.9992    7039.9078   -62.581924   -656.22892    1105.9414   -3489.8325 
16078000    263.93022   -4668.1177   -4159.1061   -4668.1177            0    4514.4264    20.046994    20.179012    20.598681    8332.7541    4491.7811    3748.8894    5302.6087    283.00248    868.38115    288.58356   -3610.4919 
16079000    263.72933   -4716.4345   -4207.8103   -4716.4345            0     5828.158    20.109942    19.803475    20.702206     8244.586    5968.8515    5279.2348    6236.3878   -578.72957   -1228.4448   -1125.0683   -3507.0394 
16080000    274.41678   -4688.8118    -4159.576   -4688.8118            0    6727.3109    19.950193    19.989093    20.743281    8272.1353    7183.2001    6784.9758    6213.7567    187.76578   -436.09986   -98.440814   -3347.9891 
16081000    267.14952   -4688.2908   -4173.0705   -4688.2908            0    6423.9996    20.115068    19.646648    20.817681    8227.0156    4230.7262    8165.3134    6875.9592   -309.33217   -180.51127    1717.6343   -3402.3024 
16082000    266.20287   -4713.0838   -4199.6891   -4713.0838            0    6353.2651    19.887961    20.239308     20.23979    8146.8915    7603.0046    4038.6948    7418.0958    687.03647   -990.01352   -1717.4715   -3444.8319 
16083000    258.62279   -4670.8182   -4172.0424   -4670.8182            0     5844.551    20.305296    19.743679    20.606625    8261.2216    4040.4758    5773.6833     7719.494   -123.01268    843.17201     7.957582   -3467.8824 
16084000    267.07111   -4661.8039   -4146.7348   -4661.8039            0    5833.5124    19.847983    20.069568    20.719682    8253.4875    6411.5032    4693.9024    6395.1315   -47.371243   -1598.6435   -467.70415   -3444.5628 
16085000    256.81905   -4702.4526   -4207.1555   -4702.4526            0    5688.8778    19.830208    19.945199    20.798816    8226.2946    6037.8238    6235.7045    4793.1052    485.70724    -1041.222    488.02868   -3524.6491 
16086000    266.75036   -4725.2954   -4210.8449   -4725.2954            0    5325.0848    19.996595    19.942254    20.688442    8250.0786     4716.915    5276.9539    5981.3855   -409.99346    165.50389   -86.663796   -3570.1364 
16087000    258.72754   -4707.5255   -4208.5477   -4707.5255            0    5355.1537    19.996905    20.189784    20.464695    8262.2763    4112.6465    5006.7124    6946.1022    613.47808    874.95253    -132.6068   -3563.2687 
16088000    262.43413   -4686.6422   -4180.5159   -4686.6422            0    6429.0762    20.203939    20.059577    20.383768    8261.1839    5550.8571    6177.3673    7559.0043     397.1734    1896.5337    2506.7813   -3405.9351 
16089000    264.28776   -4739.1098   -4229.4086   -4739.1098            0    7152.2961    19.929711     19.89512    20.599971    8167.9707    7751.8907    6626.9345    7078.0632   -326.29207    1156.6997   -531.09366   -3377.4166 
16090000    262.77921   -4701.9658    -4195.174   -4701.9658            0    4771.6652      20.0166    19.993442     20.79577    8322.4821    4591.0902    4925.3147    4798.5906    622.44983    -235.5714    735.21043   -3616.0138 
16091000    261.22879   -4713.4829   -4209.6812   -4713.4829            0    4899.1757    20.154121    19.910848    20.621116    8274.9575     4529.961    5292.8587    4874.7073   -240.42491   -218.01572   -926.72711     -3618.44 
16092000    254.44924   -4690.0937    -4199.367   -4690.0937            0    6047.1583    19.932656    20.034968    20.539549    8202.4712    7004.9745    4590.5457    6545.9547    358.26314   -515.72527    533.85447   -3475.9779 
16093000    290.71957   -4724.9358   -4164.2586   -4724.9358            0    6851.4982    20.105575    19.785256    20.615059    8200.5458    6096.0705    9205.4226    5253.0015   -419.96626     220.4351   -350.98857   -3344.8431 
16094000    261.67517   -4682.5229   -4177.8604   -4682.5229            0    7740.7159    19.907203    19.911928     20.58257    8158.7414     8231.724    7985.1966    7005.2271    961.50349   -95.371675     64.25076   -3256.8168 
16095000    257.11228   -4717.1447   -4221.2821   -4717.1447            0     7449.096    20.027497    20.072067    20.328593    8171.9572    7132.8183    7005.1045    8209.3651    -575.6732   -519.59377    282.37403   -3333.5017 
16096000    261.85713    -4677.016   -4172.0025    -4677.016            0    8516.8991    19.949026    19.945345     20.58485    8190.5103    8684.7291    7675.6864    9190.2817   -288.05895    875.09162    1767.7182   -3154.6573 
16097000     266.0289   -4682.2291     -4169.17   -4682.2291            0    5642.9879    19.999249    19.755781    20.724262    8188.1724    6183.6826    5785.9795    4959.3017    13.415243    1417.6406    671.53044   -3495.3064 
16098000    259.06571   -4681.8454   -4182.2154   -4681.8454            0    7172.0745    19.774129    19.910079    20.799642    8188.9124     7789.128    7108.7033    6618.3922   -688.73796     1354.121    264.13327   -3325.6769 
16099000     250.0901   -4663.1655   -4180.8457   -4663.1655            0    7865.5387    20.002933    19.739226    20.618445    8141.0365    9581.3095    6314.7509    7700.5558   -166.69388   -331.83883     565.6937   -3246.9808 
16100000    260.72296   -4688.0068   -4185.1806   -4688.0068            0    5580.1538    20.015747    20.049342    20.582202    8259.6904    6720.3986    4777.1926    5242.8702   -56.182814   -86.338037   -963.95172   -3513.0003 
16101000    261.33945   -4734.2728   -4230.2577   -4734.2728            0    5828.5147    19.989221    20.003461    20.549372    8216.7403    6859.8797      5135.97    5489.6945   -65.434037   -870.97362   -216.71986   -3531.8109 
16102000    260.34378   -4682.2622   -4180.1673   -4682.2622            0      5646.45    19.830415     19.83304    20.917146    8226.6594    8267.4234    4299.0959    4372.8306   -489.56244    823.07619    178.41751    -3502.721 
16103000    262.50369   -4671.5648   -4165.3044   -4671.5648            0    5318.2578    19.969286    19.967087    20.785666    8287.8366    5310.2245     5592.565     5051.984   -309.19121    421.64833    368.83653   -3522.4887 
16104000    262.97442   -4679.3796   -4172.2113   -4679.3796            0     5992.819    20.027806    20.160883    20.420876    8245.5055     5562.452    6059.7088    6356.2961   -98.127407    188.12553   -1888.1133   -3451.5614 
16105000    276.05871   -4665.9227   -4133.5202   -4665.9227            0    7272.3292    20.080271    20.013609    20.465429    8224.6198    7673.8368    5421.7137     8721.437    907.92838    1698.5929    697.38798   -3261.2215 
16106000    260.76208   -4718.5502   -4215.6486   -4718.5502            0    5972.3973    19.745657    20.046975    20.770148      8221.67    6723.2252    5634.1812    5559.7857   -542.39035     378.7047   -1242.5432   -3499.5306 
16107000    258.75459   -4686.2152   -4187.1852   -4686.2152            0      6493.22    19.974512    19.786561    20.893272     8257.583      5859.29    7383.3655    6237.0045   -102.52008    80.029269   -784.18211   -3405.2172 
16108000    265.59002   -4675.4316   -4163.2189   -4675.4316            0    5359.3187    19.889533    20.154576    20.647018    8276.6691    6514.5647    4038.3684    5525.0231    696.53757    1319.0275   -150.36664   -3516.3131 
16109000    271.85571   -4719.3406    -4195.044   -4719.3406            0    5758.2547    19.970739    20.087329    20.611834    8268.6183    5022.4522    5678.0135    6574.2982   -722.82201   -248.31277   -369.89738     -3500.66 
16110000    273.07981   -4684.6265   -4157.9691   -4684.6265            0    6444.4949    19.995538    19.878444    20.718779    8235.3039    5912.5729    7163.9244    6256.9873     161.6748    1830.7817     778.9574    -3383.963 
16111000     270.3046     -4677.32   -4156.0148     -4677.32            0      5822.71    19.946943    19.980461    20.725926    8260.2996    5792.1791    5700.4736    5975.4774    869.71306    -251.2648    26.003002   -3454.5646 
16112000    265.30037   -4678.3507   -4166.6966   -4678.3507            0    7073.0098    20.033213    19.935073    20.531879    8199.6845    5774.7933    8853.7351     6590.501    555.59075    -508.7244   -290.49577   -3320.8779 
16113000    257.89709   -4715.8757   -4218.4994   -4715.8757            0    6047.0134      20.1899    20.006125    20.412423    8245.0194    4557.5564    6429.2204    7154.2633    74.037701    1126.4618    1152.3337   -3491.3754 
16114000    263.96986   -4697.5299   -4188.4418   -4697.5299            0    5850.3539    20.114674    19.890963    20.834228    8335.7794    3118.1604    7661.3957    6771.5055   -61.272799    202.37113   -1985.9985   -3477.2213 
16115000    258.36689   -4689.7517   -4191.4694   -4689.7517            0    5617.5423    19.847057    20.104984    20.759155    8283.4168    5843.5722    5274.4391    5734.6157    921.51477      1875.58    265.41042   -3512.8414 
16116000    258.49439   -4706.0866   -4207.5584   -4706.0866            0    8118.8028    20.249149    19.712691    20.481608    8175.5454    6169.7829    8479.7888    9706.8368    92.076361     1269.724   -1786.0921   -3239.5378 
16117000    256.81842   -4712.7012   -4217.4052   -4712.7012            0    5671.5624    19.827837    20.138711    20.683836    8259.2022    4460.2715    6741.7312    5812.6846   -176.58002    54.089078    399.63952   -3534.2542 
16118000    253.26672   -4692.7183   -4204.2722   -4692.7183            0    7040.9242    20.165374    19.851221      20.5543     8228.036    5239.2809    6918.0869    8965.4049   -1308.1169   -637.84519    435.60069   -3359.3791 
16119000    243.65575   -4675.6713   -4205.7607   -4675.6713            0    5540.7609    19.975171    20.089508    20.527207    8237.3908     5278.453     4599.382    6744.4477   -314.46612   -146.55542    1207.9544   -3540.1275 
16120000    245.76016   -4660.8493   -4186.8801   -4660.8493            0    4958.2033    20.203269    19.728317    20.900791     8330.564    4517.2092    4925.1794    5432.2212    411.08825   -341.41705    1601.1443   -3584.4945 
16121000    248.29151   -4708.8983   -4230.0473   -4708.8983            0    4911.6653    19.903416    20.113691    20.721122    8295.3107    6428.7472    3722.1518    4584.0969    978.54372    809.42779    1278.5922   -3635.8409 
16122000     261.9779   -4660.4963   -4155.2499   -4660.4963            0    5889.7791     20.07465     19.95281    20.456044    8193.5797    4738.6991     6473.836    6456.8021   -268.26596    572.19731   -562.92406    -3451.451 
16123000     252.9904   -4674.9725   -4187.0592   -4674.9725            0    5512.3552     20.09062    20.116766    20.508523    8288.6897    3449.9984    6425.3844    6661.6829    128.12443     989.7007    211.20162   -3520.7145 
16124000    268.50795   -4693.5003   -4175.6602   -4693.5003            0    6828.4643    19.959506    20.036676     20.63857    8253.8213    6517.9731    6908.5513    7058.8683    85.526086   -2099.9482   -1668.9964   -3353.6939 
16125000    262.35659    -4661.234   -4155.2573    -4661.234            0    6140.3253    20.109406    19.929368    20.632818     8268.968    7284.2141    5458.8862    5677.8757    -513.5354   -531.18724   -338.52443   -3414.7683 
16126000    253.68118   -4710.3123   -4221.0668   -4710.3123            0    6583.7978    19.924185    20.014408    20.684437    8248.3492    6759.2462    7634.7838    5357.3633   -33.631414    1508.6811    113.87273   -3429.0773 
16127000    259.29114   -4696.7958    -4196.731   -4696.7958            0    7094.8823    20.060258    19.858531    20.797193    8284.9208    7592.6005     7978.524    5713.5223     269.2862     91.61398    942.15837   -3339.4772 
16128000    263.13527   -4704.1942   -4196.7157   -4704.1942            0    7333.1307    20.015081    20.082572    20.380872    8192.1795    8117.8529    6417.7003    7463.8389     -1046.39    876.99567     1047.222   -3320.5933 
16129000    260.02204    -4654.059   -4152.5846    -4654.059            0    4409.7427     20.15454    20.131102    20.606961    8360.9262    5130.0535    1887.7306    6211.4441   -222.08151    504.13659    479.10923   -3614.8803 
16130000    252.02018   -4716.8785   -4230.8364   -4716.8785            0    5593.3394    19.868483    19.986391    20.773639    8249.1973      6440.22    5139.4663     5200.332    303.11258   -356.91984   -124.82703   -3557.9237 
16131000    247.12134   -4715.9497   -4239.3554   -4715.9497            0    4952.8766    19.879813    19.960831     20.89351    8290.9121    5746.8446    5170.2859    3941.4993   -117.74031   -1190.4574    858.12097   -3640.4811 
16132000    260.41169   -4656.0457   -4153.8199   -4656.0457            0     6886.111    20.189253    19.836604    20.567433    8236.9738    5781.2888    8812.3306    6064.7135    1045.0552   -131.27511    416.40291   -3326.6064 
16133000    273.69622   -4677.0181   -4149.1719   -4677.0181            0    6996.2972    19.868141    19.992355    20.667024     8209.168    7790.7464    7944.0541    5254.0911    688.74368   -481.96201    1705.4095   -3311.5592 
16134000    256.81153   -4701.8888   -4206.6062   -4701.8888            0    6662.5146     19.97212    19.801056    20.709904    8190.1262    5183.4825    8701.8323    6102.2291    -142.2973    539.29938    606.21859   -3410.8049 
16135000    258.62461   -4689.2519   -4190.4726   -4689.2519            0    7460.2682    19.796404    19.919178    20.712099    8167.3622     7912.523    8947.3214    5520.9603    -326.8361    220.50813   -883.89656   -3301.8607 
16136000    255.57508   -4676.9496   -4184.0516   -4676.9496            0    5006.6106      20.0582    20.039464    20.726313    8331.0571    3273.1354    6579.3424     5167.354    604.99805   -735.02024     864.9227   -3575.7488 
16137000    251.86285   -4694.6516   -4208.9129   -4694.6516            0    6010.3925     19.95036    20.033638    20.639382    8249.1128    6641.4455     5689.747    5699.9851   -785.00181    161.37893   -1166.4316   -3485.8335 
16138000    252.62155   -4690.6209    -4203.419   -4690.6209            0    6190.6928    20.039491     20.03825    20.596313    8270.5802    5750.8697    6993.4034    5827.8054   -624.64607   -463.84005   -320.80049   -3456.7105 
16139000    255.86649   -4738.1351    -4244.675   -4738.1351            0    5430.3558    20.000026    19.958674    20.708407    8266.2574    4059.1084    5323.9024    6908.0566    320.66699    1408.3421   -200.70945   -3590.0191 
16140000     272.6185   -4704.0788    -4178.311   -4704.0788            0    4391.0782    20.053738    20.104229     20.60946    8309.0118    3326.1318    5638.4444    4208.6584     221.1837   -491.98708    514.47963   -3646.2072 
16141000    264.62788   -4713.4671   -4203.1099   -4713.4671            0    3798.2309    20.165721    19.987436    20.639454    8318.9599    2472.0261    4825.0995    4097.5673    91.555907   -325.73177     1460.266   -3742.2953 
16142000    263.98942   -4687.2419   -4178.1161   -4687.2419            0    6141.3179    19.913863    20.153676    20.485384    8221.5534    7361.7643    5652.3095      5409.88   -661.66419    441.78978   -51.276716   -3441.7542 
16143000    255.13712    -4690.358   -4198.3046    -4690.358            0     6298.914    20.014871    19.930477    20.747201    8276.1812    6748.7664    5734.3138    6413.6617    66.471299    1443.9014    708.22758   -3438.0281 
16144000    262.10332   -4694.7377   -4189.2494   -4694.7377            0    4904.2305    19.889854    19.965159    20.989242    8334.9141    5628.9493    5501.9928    3581.7493   -285.12479   -1411.5196   -534.33553   -3593.1099 
16145000    252.87331   -4686.4903   -4198.8029   -4686.4903            0    4875.4259    20.042729    20.102072    20.659812     8323.846    5061.9332    4030.7666    5533.5777    619.22924    2131.4183    21.132047   -3606.9518 
16146000    261.24486   -4715.2626   -4211.4299   -4715.2626            0    7203.6118    19.880224    20.046572    20.547488    8188.7978    6848.1647    7381.1519    7381.5188    254.93323    276.41771   -353.21297    -3351.137 
16147000    247.79431   -4697.6608   -4219.7686   -4697.6608            0    4209.7873    20.176509    19.905832    20.636209    8288.1249    2387.5001    5782.5993    4459.2625     424.6625   -236.45322   -993.59168   -3710.9156 
16148000    251.46873   -4692.6263   -4207.6477   -4692.6263            0    5773.7932    19.803392     20.30483    20.655891     8305.827    7598.6166    4620.8731    5101.8898   -277.05182    144.87181   -356.46314   -3508.2568 
16149000    263.28567   -4669.7166    -4161.948   -4669.7166            0    5806.7149    20.070571    19.938168    20.507322    8206.4238    5532.4514    5725.9764     6161.717    196.73698    153.65119    872.06724   -3466.9872 
16150000    256.00364   -4687.7078   -4193.9832   -4687.7078            0    6182.3319    20.042954    19.958224     20.51464    8206.3023    8122.4848    3182.7649    7241.7459     -312.915    1062.6901   -400.98964   -3454.0786 
16151000    277.13517    -4681.651   -4147.1725    -4681.651            0     4399.112    19.801417    19.946133    20.904566    8256.5031     4586.553    4195.6418    4415.1413    456.05391   -111.77586    598.73713   -3617.4639 
16152000    271.94678   -4690.7083   -4166.2361   -4690.7083            0    6664.3556    19.906249    20.014869    20.668168    8234.6315    6219.4558    6342.4072    7431.2039   -500.13291   -911.77943   -762.65423   -3365.8892 
16153000    256.05074   -4690.3466   -4196.5312   -4690.3466            0    4802.1307    19.938273    19.857399    21.130038    8365.8522    3813.1877    7766.1202    2827.0841     521.7813    423.52907   -1284.0299   -3610.6359 
16154000    264.51212   -4700.8126   -4190.6788   -4700.8126            0    6231.7261    19.930228    20.066307    20.575432    8228.6517    5420.2171    7352.2025    5922.7587    359.65133     608.0679   -383.97598   -3442.8315 
16155000    264.47485   -4690.7326   -4180.6706   -4690.7326            0    7742.2454    19.924879    20.110616    20.460214    8198.4404    7623.5085    7895.0523    7708.1754    563.77319    67.727477   -1040.8035   -3254.9625 
16156000    258.83651   -4721.6753   -4222.4873   -4721.6753            0    4006.7138    20.077979    19.899761    20.770764    8298.8962    4449.3577    3122.8798    4447.9038   -6.0928581    229.51958   -1400.3975   -3737.5512 
16157000    271.15733   -4701.4989   -4178.5492   -4701.4989            0    6659.5059    19.982253    19.905191    20.599026    8193.2738    4551.0235    7913.8955    7513.5988   -916.22586   -414.54267    409.37856   -3382.8015 
16158000    256.30335   -4715.5581   -4221.2556   -4715.5581            0    6498.6427    19.855127    20.022072    20.730065    8241.0463    6173.3577    7603.6887    5718.8816   -129.04515   -554.41935    836.39895   -3440.2018 
16159000    258.07476   -4702.2643   -4204.5454   -4702.2643            0    6907.1286    20.076296    19.814931    20.724201    8244.3032    6944.0096    7193.0453     6584.331    23.747565    820.53548    387.71529   -3374.0689 
16160000    272.10276   -4708.2531   -4183.4801   -4708.2531            0    5445.9007    19.956775      19.9348    20.927008    8325.4819    5792.1142    5426.2763    5119.3117    673.28137   -885.11129    396.38313   -3522.2464 
16161000    264.36067   -4712.4798    -4202.638   -4712.4798            0    6752.9147    19.955339    20.048539    20.417019     8168.347    6458.6099    6290.9543    7509.1799     39.56181    472.82502    1447.4035   -3398.1838 
16162000    266.58079   -4701.4458   -4187.3223   -4701.4458            0    6381.7383    20.237523    19.921706    20.524223     8274.668    4153.5007    8213.8645    6777.8496   -534.63571    96.261619    404.18467   -3417.1898 
16163000    280.75779   -4722.3971   -4180.9321   -4722.3971            0    7609.9622    20.043317    19.882184    20.639803    8225.0629    8054.5082    6980.9278    7794.4506    314.61491    103.80345   -952.21872   -3268.0859 
16164000    271.32812   -4728.9132   -4205.6341   -4728.9132            0    5955.6782    19.849046    19.849916    20.884358    8228.4765    6348.6001    6559.2021    4959.2324    521.26145   -440.44036    -344.1752   -3490.9295 
16165000    270.60363   -4707.0274   -4185.1456   -4707.0274            0    6653.8203    19.844076    19.856164    20.781618    8188.5233    6523.6637    7401.8166    6035.9807    833.46729   -101.31371   -373.59998   -3390.5383 
16166000    272.87803   -4682.6027   -4156.3344   -4682.6027            0    6504.2856     19.83661    20.014791    20.592058    8175.5743    7285.0002    7138.4167      5089.44    262.03425   -182.88751    466.95884   -3380.8131 
16167000     267.8865   -4714.7286   -4198.0869   -4714.7286            0    4066.6114     20.19979    20.002552    20.569355    8310.9934    2524.2461     4240.932    5434.6563   -608.86543    65.745408   -732.83327   -3705.1839 
16168000     259.1559   -4654.2877   -4154.4838   -4654.2877            0    6161.2048    19.947245    20.267516    20.474134    8277.3055    7926.8703    3841.3435    6715.4005    88.856705   -872.82826    386.95778   -3410.7277 
16169000    281.51226   -4698.3955   -4155.4754   -4698.3955            0    5968.5919    20.003976    19.920948     20.79711      8287.61    4415.7168    8437.6489      5052.41    531.22035    254.71049   -518.24765   -3434.0738 
16170000    270.89794   -4699.5867   -4177.1372   -4699.5867            0     4778.824    19.937986    19.854336    20.885656    8267.7012    4989.8234    4586.7623    4759.8863    257.50888   -70.236233   -936.83676    -3600.926 
16171000    275.57718   -4697.7961   -4166.3223   -4697.7961            0    6757.7754     19.97048    20.016952    20.676193    8265.2695    7439.6354    5712.6097     7121.081    629.87372    209.73266   -11.536763   -3351.7369 
16172000    258.87203   -4708.9394   -4209.6829   -4708.9394            0    4945.5076    20.071302    20.042816    20.540576    8263.1742    4252.2652    5484.2812    5099.9764   -579.54393   -209.01383    97.212231   -3613.7002 
16173000    264.55096   -4727.3401   -4217.1313   -4727.3401            0    5668.3814    19.994618    20.019307    20.687717    8280.8467    6055.0157    5716.3882    5233.7404   -39.643643    131.77682   -2356.9207   -3532.5742 
16174000    256.26334   -4687.4458   -4193.2204   -4687.4458            0    6341.0335     20.12452    19.682364    20.969437    8305.9549    5773.0169    7399.7679    5850.3157    442.35663    1765.4728    284.44187   -3425.1067 
16175000    268.80499   -4716.7686   -4198.3556   -4716.7686            0    6148.9814     19.98154    20.024955    20.676785    8273.3901    6061.9268    5570.8848    6814.1326    650.71887    686.85995   -369.95451   -3456.4262 
16176000    257.99501   -4722.1743   -4224.6092   -4722.1743            0    4452.0705    20.290407    20.160606    20.210838    8267.5847     4280.497    1779.4346    7296.2798    171.11128    1163.9159    427.60256   -3687.8042 
16177000    260.30088   -4683.2188   -4181.2067   -4683.2188            0    7275.8537    19.941689    20.022425     20.62785    8236.3079     6326.061    8610.5865    6890.9135    408.53288   -796.04614   -113.35049    -3307.245 
16178000    264.40837   -4691.9961   -4182.0623   -4691.9961            0    6734.0602    19.939037    19.940322    20.861173    8294.2107    8330.5382    5535.5228    6336.1195    361.89085     340.0361   -184.99402   -3367.4932 
16179000    264.39621   -4674.0424   -4164.1321   -4674.0424            0    4958.5611    20.003666    19.877487    20.938155    8325.4838     4481.184    5427.8656    4966.6336   -140.44644    370.91704    593.13967   -3562.0704 
16180000    256.91075   -4660.7197   -4165.2458   -4660.7197            0    6225.5615     19.71355    20.264189    20.673815    8258.7573    7051.4816    5932.2925    5692.9105    484.15978    429.82192   -173.84814   -3415.4049 
16181000    268.19175   -4722.1419   -4204.9116   -4722.1419            0    5598.9498    20.121017    19.927496      20.5191    8227.3689    5306.8267    5905.1564    5584.8663    483.72399    112.33663   -506.03022   -3533.1063 
16182000    259.10064   -4703.9587   -4204.2613   -4703.9587            0     6195.198    20.046417    20.072248     20.64189    8305.8149    8767.5956    3571.1501    6246.8481    365.81475   -525.68058   -632.41272   -3453.8259 
16183000    264.50636   -4719.1879   -4209.0651   -4719.1879            0    7120.8749    19.982196    19.929021    20.570769    8191.8069    7815.6541    6492.5297     7054.441   -629.96186    302.29918   -431.13768   -3358.3406 
16184000    255.13725   -4707.9175   -4215.8639   -4707.9175            0    7727.2834    20.163707    19.663183    20.656688     8190.019    7480.3385    9252.9747     6448.537    -1559.267    702.16256    440.50514   -3292.8938 
16185000    271.71651   -4687.4894   -4163.4613   -4687.4894            0    4338.4655    19.896388    20.203814    20.821935     8370.062    4798.0813    3316.0978    4901.2173   -374.25971   -2367.2958   -253.49896   -3633.8702 
16186000    261.17074   -4655.6018    -4151.912   -4655.6018            0    6505.1624    19.972165    20.027704    20.682167    8272.7965     5424.206    8118.4988    5972.7823    364.33213    751.26467     286.5919   -3367.0626 
16187000    261.51914   -4705.5645   -4201.2029   -4705.5645            0    5439.0259    19.923776    19.980536    20.614193    8206.2573    5769.5458    5329.4899     5218.042     663.0332    99.507973   -742.92774   -3550.2611 
16188000    262.68397   -4679.5456   -4172.9375   -4679.5456            0    7685.2422      19.9604     20.13639    20.462979    8224.6934    6596.3636    9344.6138    7114.7494    224.20151    1643.2885    1046.3125   -3251.1025 
16189000    249.69125   -4691.4292   -4209.8786   -4691.4292            0    7781.5404    20.177987    19.753748    20.413274    8136.5446    7469.6585    8492.6689    7382.2938    32.723731   -655.03937   -426.54957   -3286.4965 
16190000    263.69436   -4659.8215   -4151.2648   -4659.8215            0    5940.1228    20.234806    20.014845    20.541483    8319.2288    6061.4144    5740.1805    6018.7736    88.532054   -506.08236    1463.4389    -3430.565 
16191000    268.60809   -4701.5156   -4183.4824   -4701.5156            0    5392.4429    19.696957    20.158747    20.860807    8283.1163    6658.5999    5300.9632    4217.7656    412.28567   -218.30252   -1340.5894   -3532.0712 
16192000    262.97984   -4677.0305   -4169.8517   -4677.0305            0    6404.9568      19.9577    19.885453    20.766346    8241.4967    6940.4464    5719.1514    6555.2725    318.78868    1511.5243   -702.87129   -3400.0158 
16193000     266.1553   -4698.3882   -4185.0853   -4698.3882            0    4732.3794    20.092242     19.87237    20.787601     8300.083    2943.6403    6752.9872    4500.5105    106.10796   -815.03263      -221.86   -3612.2393 
16194000    274.12024   -4691.9662   -4163.3023   -4691.9662            0    5875.3174     20.14019    20.144312     20.29942    8235.6833    5533.1376    4538.4495     7554.365    527.35303    379.55929   -184.34453   -3457.6238 
16195000    260.33851   -4691.3594   -4189.2747   -4691.3594            0    5026.7635    20.099527    20.003638    20.615278    8288.6541    5215.7817    5685.3669    4179.1419     1028.197   -29.704136   -1205.7857   -3581.6319 
16196000     253.8511   -4680.5367   -4190.9636   -4680.5367            0    4943.9027    19.954514    19.848856     20.97667    8308.3196    4819.1351    5288.6405    4723.9327    418.33561   -1640.4302   -86.313084   -3591.9192 
16197000    265.82789   -4713.1489   -4200.4774   -4713.1489            0    4387.5467    19.861181    20.119911    20.801428     8312.359    6572.2969    2438.5685    4151.7746    73.702631    324.88972   -434.26919   -3668.5873 
16198000    273.21349   -4712.2747   -4185.3595   -4712.2747            0    4953.6646    20.175182    20.016033    20.579917    8310.7285     4983.756    3966.5024    5910.7354    8.6628646   -97.019906   -340.04327   -3584.9583 
16199000    269.71151   -4683.6416   -4163.4803   -4683.6416            0    7049.2377    19.897587    19.973816     20.72855    8238.1627     7137.526    7498.3178    6511.8692   -312.86079   -476.96976    1070.4062   -3316.5485 
16200000    251.56166   -4693.5632   -4208.4054   -4693.5632            0    4294.3989     20.03177    20.008772    20.713364    8302.1468    6645.6681    1816.0163    4421.5124   -259.66796    578.43836    159.29151   -3688.4469 
16201000    258.44778   -4694.6879   -4196.2496   -4694.6879            0    3745.2585    20.036933    20.030851    20.693953    8305.6592    4119.1399    4677.2582    2439.3773   -294.11257    740.71954   -272.06666   -3742.5883 
16202000     260.4899   -4697.9896   -4195.6129   -4697.9896            0    4185.1264     20.23444    20.013465    20.648785    8361.9577    2927.3117    5162.3654    4465.7023   -656.00365     1302.005   -1209.1489   -3685.2343 
16203000    252.59608   -4703.1514   -4215.9986   -4703.1514            0    6032.3459    20.084902     20.07893    20.503923    8268.8902    3545.8598    7946.4973    6604.6807   -1066.0629   -927.01816   -312.88677   -3488.5382 
16204000    253.07036     -4696.54   -4208.4726     -4696.54            0    6375.7704    20.082224    19.967604    20.380334    8172.3891    6005.6052    5259.5116    7862.1943    186.99814    1434.3171    288.56575   -3448.5706 
16205000     251.9028   -4714.0455   -4228.2298   -4714.0455            0    6140.1383     19.92005    19.894596    20.825843    8253.3097    7516.9794    5782.8013    5120.6341    608.45557   -219.04984    88.583577   -3489.1655 
16206000    264.90309   -4727.4988   -4216.6109   -4727.4988            0    5883.5782     19.89194     19.92177      20.6852    8197.1863    7211.4476     5294.185    5145.1019     136.8335    887.21462   -2486.2054   -3513.2435 
16207000    265.02558   -4699.8321    -4188.708   -4699.8321            0    3844.1429    20.066058    20.289359    20.473215    8335.2077    3412.4061    3796.7063    4323.3163     99.89987     2113.156   -140.17526   -3721.4123 
16208000    260.72034   -4675.8129   -4172.9917   -4675.8129            0    7738.3748    19.919614    19.934863    20.673317     8209.266    8929.7741    8414.3841    5870.9663    711.82154    1443.9162    200.58157   -3246.5247 
16209000    261.91747   -4706.1937   -4201.0638   -4706.1937            0    4971.0546    19.988343    19.875386    20.893766    8300.5926    3492.2759    5781.5375    5639.3503   -870.63802    1293.3328   -989.57151   -3599.2897 
16210000    263.42067   -4660.8487   -4152.8198   -4660.8487            0    7248.9927    19.990451    19.948213    20.706075    8257.0392    6623.8692    6744.7463    8378.3626   -350.12923    1139.9497    1324.1504   -3279.8928 
16211000    267.00957     -4706.19   -4191.2396     -4706.19            0    5603.3341    20.002647    19.887947    20.719528    8242.4687    5323.5744    5892.8344    5593.5935    34.954785    2118.4201    257.98391   -3517.6743 
16212000    258.15868   -4680.7965   -4182.9158   -4680.7965            0    6967.8725    19.993498    19.942492    20.631462    8226.1801    8186.9617    6310.3452    6406.3105   -379.08113   -1085.7376    2.8084537   -3346.9773 
16213000    276.74926   -4689.4546   -4155.7204   -4689.4546            0     5690.187    19.867228    19.812566    21.019467    8273.6986    6287.5977    6712.5007    4070.4626    811.00052    1087.3644    112.90786    -3469.123 
16214000    260.65851    -4693.804   -4191.1021    -4693.804            0    6031.2079    20.110452    20.034464    20.601235    8300.2814     5995.855    5955.2412    6142.5274     272.5176     503.8341   -164.98811   -3461.0178 
16215000    247.47874   -4717.6486   -4240.3651   -4717.6486            0     5392.792    20.191104    20.154717    20.466683    8328.8345    4558.1715    5932.7161    5687.4883    213.26843   -306.88604    732.38303   -3585.3161 
16216000    264.22686   -4719.1472   -4209.5635   -4719.1472            0      4266.02    20.021357    20.025026    20.794329     8337.033    3393.2804    4142.8082    5261.9714   -818.15111    581.76337    443.29964   -3690.8706 
16217000    253.47561   -4704.9117   -4216.0627   -4704.9117            0    8905.7265    19.860225    19.674731     20.79351    8124.9516    8097.5162    9440.9256    9178.7376   -1040.7796   -499.74971   -988.32329   -3160.7868 
16218000    262.78382   -4679.6672   -4172.8665   -4679.6672            0    7303.5998    19.984678    19.971665    20.707309    8264.8523    7398.9514    6224.9571    8286.8911   -767.31193    485.99268    96.511559   -3292.5315 
16219000    269.52403   -4682.4675   -4162.6678   -4682.4675            0    5611.2094    20.221834    19.906035    20.411395    8216.3324    4897.8917    5159.0992    6776.6372    214.81961   -952.00749   -1294.7496   -3490.2946 
16220000    269.81036   -4741.3901   -4221.0381   -4741.3901            0    5298.2224    20.138186    19.807534    20.572088    8205.9553    5912.1907    5529.7662    4452.7104   -404.71926   -123.78746   -619.50765    -3586.971 
16221000    267.53018   -4711.6032   -4195.6487   -4711.6032            0    5181.0388    19.879165    19.857071    20.886578    8244.8095    6227.0834    4729.5674    4586.4657   -159.18678    377.65648    204.80464   -3572.6698 
16222000    261.37599   -4712.1344   -4208.0489   -4712.1344            0    4422.3083    20.182047    19.549437     20.86982    8234.1384    3827.8561    5992.3172    3446.7516    249.24936    538.65773    297.26412   -3676.9895 
16223000    260.34467   -4698.4641   -4196.3675   -4698.4641            0      7130.76    19.980153    19.833749    20.514397    8129.4729     7754.218    6638.4174    6999.6446     379.6561   -1266.5393    1192.9862   -3350.9445 
16224000    262.84278   -4686.5148   -4179.6004   -4686.5148            0    6495.1451    19.794472    20.060535    20.572753    8169.1872    6880.2121    6330.9337    6274.2895   -160.61484   -277.07468    334.09795   -3405.7739 
16225000    270.33003   -4726.9861   -4205.6319   -4726.9861            0    7630.4294     20.05731    20.042458    20.330658    8172.8795    7326.8642    8136.8346    7427.5895   -535.32435   -871.69016    384.17535   -3296.1376 
16226000    256.44929   -4685.1669   -4190.5829   -4685.1669            0    4969.0893    20.103855    20.165092    20.438062    8285.5104    4441.3216    3802.1444     6663.802   -659.35838   -1440.2538   -65.230537   -3590.1396 
16227000    273.53182   -4640.7946   -4113.2654   -4640.7946            0    6692.1238    19.992901    19.922021     20.65977    8228.7656    5028.2449    7282.2547    7765.8719    32.021207   -1039.7852    571.05773   -3310.1563 
16228000    276.68659   -4690.4289   -4156.8156   -4690.4289            0    7235.8692    19.848009    20.013652     20.65242    8203.7842    7946.0772    6889.0451    6872.4855   -344.59476     925.3292    294.30635   -3291.0889 
16229000    264.63535   -4684.2843   -4173.9128   -4684.2843            0    8084.0254     20.19135    19.859181    20.610009    8264.2773    7917.9168    8234.2343    8099.9252   -662.41374   -188.87587   -1442.0355   -3199.5775 
16230000    275.89553   -4683.8196   -4151.7318   -4683.8196            0    5182.2581    20.003942    20.176105      20.4538    8255.1874    4549.7893    5219.0367    5777.9483   -346.23463   -1493.5315   -1289.4265   -3527.8219 
16231000    271.88772   -4689.9497   -4165.5913   -4689.9497            0    4688.5725    20.050303     19.69528    20.972876     8282.112      2911.99    6904.0114    4249.7161    450.34984   -177.55734    294.11685   -3599.2769 
16232000    277.31107   -4718.5257    -4183.708   -4718.5257            0    5444.5719    20.024821    20.007763    20.648268    8272.7672    5514.1217    6019.6572    4799.9368    297.75653    1028.5678   -30.218398   -3526.8214 
16233000    266.85908   -4717.3149   -4202.6547   -4717.3149            0     6296.815    19.905323    20.126718     20.48065    8205.1386    6689.9367    6232.6784    5967.8298   -1034.6588    739.45232   -115.28481   -3449.1556 
16234000    269.09233   -4699.1964   -4180.2292   -4699.1964            0    3386.8249    20.070977    19.989026    20.728742    8316.3564    3385.8503    3757.9101    3016.7142    379.65687     1042.907   -742.75041   -3769.4564 
16235000    265.60717   -4718.8036   -4206.5578   -4718.8036            0    5471.7919    19.922801    19.664045    20.980431    8219.3536    6437.9771     5733.726    4243.6726    61.986543    707.90719    815.26016   -3550.6495 
16236000    254.97809    -4703.694   -4211.9473    -4703.694            0    6298.4727    19.873418    20.145668    20.527209    8218.3404    7993.9028    3670.1188    7231.3965    -315.6981   -512.22572    949.27272   -3457.0372 
16237000    249.94411    -4665.127   -4183.0888    -4665.127            0    6231.5408     20.21426    20.003447    20.322225     8217.391     6042.568    5461.1381    7190.9163    324.36139   -679.28965    668.26327   -3436.2871 
16238000    257.52805   -4668.9478   -4172.2833   -4668.9478            0    6481.7443     20.02481    20.119237    20.474937    8249.0226    5927.0719    6609.2361    6908.9248   -40.454206    879.57438   -327.20301   -3392.5065 
16239000    247.50704   -4674.9218   -4197.5836   -4674.9218            0    5232.3466    19.932871    19.831605    20.871998    8250.7179    5942.5216    6479.2558    3275.2623    34.448565    80.507308     90.33522   -3567.9845 
16240000    269.13985   -4706.7766   -4187.7178   -4706.7766            0    4985.3396     19.99024     20.04725     20.83805    8350.8351    5144.8798    4706.7841    5104.3548   -184.79479    723.67857    100.35265   -3580.5614 
16241000    243.72668   -4682.9218   -4212.8744   -4682.9218            0    5670.7056    20.174019    20.003585    20.616847     8319.984    4362.7645    5953.5339    6695.8184   -702.43516   -366.61162    523.77846   -3524.7999 
16242000    259.26918   -4701.2493   -4201.2269   -4701.2493            0    4987.2063     20.20157    19.975441     20.63794    8328.1367    5312.5568     4050.426    5598.6362    155.90823    777.76392   -563.47364   -3595.4941 
16243000    276.64696   -4694.2413   -4160.7044   -4694.2413            0     4925.887    19.829422    20.058941     20.73403    8247.1101    5060.3994    5824.8357    3892.4258    173.74787    961.82742    680.50863   -3568.2402 
16244000    268.90831   -4692.1118   -4173.4995   -4692.1118            0    7271.3528    20.166009     19.69049    20.694124    8217.1939    6912.7612    7655.9556    7245.3417   -830.15095     658.0185    1178.8339   -3302.1053 
16245000    282.03917   -4678.5718   -4134.6355   -4678.5718            0    5830.9787    19.882574    20.017184    20.715731    8244.7188    5577.7177    5149.4498    6765.7686   -59.448678      574.066    454.85523   -3433.5142 
16246000    271.82453   -4693.8774    -4169.641   -4693.8774            0    4508.8428    20.164556    19.960692     20.65598    8314.0009    5228.6745    4408.7459    3889.1079   -120.29327   -594.03572    81.465743   -3622.9385 
16247000    252.40185   -4673.5751   -4186.7969   -4673.5751            0    5132.7812    20.010705    19.921838    20.674031    8241.7034    5626.0096    5254.5471    4517.7869   -347.99326    -333.6816   -649.43684    -3569.853 
16248000    273.26699   -4689.9584     -4162.94   -4689.9584            0    5894.4187    20.078537    19.941424    20.659712    8272.0376    7201.1714    4531.0509    5951.0339   -80.552827    842.32731    740.61948   -3451.8421 
16249000    244.20077   -4675.0442   -4204.0825   -4675.0442            0    7240.6682     20.16372    19.741379    20.632317    8212.8925     6767.419    7041.0697     7913.516    796.18924    449.24358   -372.93797   -3336.8197 
16250000    278.31657   -4684.7207   -4147.9638   -4684.7207            0     4726.088    20.180162    20.037795    20.590495    8326.0947    5246.6244      2983.68    5947.9595    209.24313   -1109.9399    837.77349   -3574.0865 
Loop time of 338.155 on 64 procs for 250000 steps with 972 atoms

Performance: 127.752 ns/day, 0.188 hours/ns, 739.306 timesteps/s
193.5% CPU use with 32 MPI tasks x 2 OpenMP threads

MPI task timing breakdown:
Section |  min time  |  avg time  |  max time  |%varavg| %total
---------------------------------------------------------------
Pair    | 28.253     | 34.748     | 41.508     |  61.1 | 10.28
Bond    | 0.9261     | 1.1482     | 1.5223     |  14.1 |  0.34
Kspace  | 142.61     | 148.97     | 155.96     |  31.1 | 44.05
Neigh   | 2.2584     | 2.3802     | 2.5062     |   5.7 |  0.70
Comm    | 65.335     | 68.86      | 72.809     |  21.8 | 20.36
Output  | 0.54775    | 0.54808    | 0.54965    |   0.0 |  0.16
Modify  | 67.302     | 69.843     | 71.72      |  13.0 | 20.65
Other   |            | 11.66      |            |       |  3.45

Nlocal:        30.3750 ave          39 max          25 min
Histogram: 4 1 8 5 4 5 2 2 0 1
Nghost:        2598.88 ave        2631 max        2550 min
Histogram: 1 1 3 3 3 5 2 3 5 6
Neighs:        9455.88 ave       12204 max        6550 min
Histogram: 1 0 4 7 5 6 0 3 4 2

Total # of neighbors = 302588
Ave neighs/atom = 311.30453
Ave special neighs/atom = 2.0000000
Neighbor list builds = 8199
Dangerous builds = 0

unfix		3
unfix		2
unfix		1

write_data	data.final.${pid}
write_data	data.final.0
System init for write_data ...
PPPM initialization ...
  extracting TIP4P info from pair style
  using 12-bit tables for long-range coulomb (../kspace.cpp:340)
  G vector (1/distance) = 0.37122153
  grid = 24 24 24
  stencil order = 5
  estimated absolute RMS force accuracy = 0.0036301712
  estimated relative force accuracy = 1.0932153e-05
  using double precision FFTW3
  3d grid and FFT values/proc = 3211 432
Last active /omp style is kspace_style pppm/tip4p/omp
WARNING: Not all mixed pair coeffs generated from mixing. Use write_data with 'pair ij' option to store all pair coeffs. (../write_data.cpp:312)

write_restart   restart.lmp.${pid}
write_restart   restart.lmp.0
System init for write_restart ...
PPPM initialization ...
  extracting TIP4P info from pair style
  using 12-bit tables for long-range coulomb (../kspace.cpp:340)
  G vector (1/distance) = 0.37122153
  grid = 24 24 24
  stencil order = 5
  estimated absolute RMS force accuracy = 0.0036301712
  estimated relative force accuracy = 1.0932153e-05
  using double precision FFTW3
  3d grid and FFT values/proc = 3211 432
Last active /omp style is kspace_style pppm/tip4p/omp
Total wall time: 0:05:38
