LAMMPS (30 Jul 2021)
Processor partition = 1
  using 2 OpenMP thread(s) per MPI task
using multi-threaded neighbor list subroutines
variable        pid world 0 1
variable        phase world IceIh IceIII

shell cd ${phase}
shell cd IceIII
include Restart.lmp
echo both
log log.lammps
#include		in.partitions
include		in.temp
variable        temperature equal 157.72
variable	tempDamp equal 100.0
include		in.pressure
variable        pressure equal 1847.4
variable        pressureDamp equal 1000.0 # This is 1 ps
include		in.seed
variable        seed equal 745823

units		real
atom_style	full

read_restart	restart.lmp.${pid}
read_restart	restart.lmp.1
Reading restart file ...
  restart file = 30 Jul 2021, LAMMPS = 30 Jul 2021
  restoring atom style full from restart
  orthogonal box = (-0.037435579 0.012596459 -0.056297475) to (20.037437 19.987405 20.756295)
  4 by 2 by 4 MPI processor grid
  restoring pair style lj/cut/tip4p/long/omp from restart
  restoring bond style harmonic/omp from restart
  restoring angle style harmonic/omp from restart
  972 atoms
  648 bonds
  324 angles
Finding 1-2 1-3 1-4 neighbors ...
  special bond factors lj:    0        0        0       
  special bond factors coul:  0        0        0       
     2 = max # of 1-2 neighbors
     1 = max # of 1-3 neighbors
     1 = max # of 1-4 neighbors
     2 = max # of special neighbors
  special bonds CPU = 0.002 seconds
  read_restart CPU = 0.007 seconds
include 	in.setup
variable	out_freq equal 1000
variable	out_freq2 equal 10000
variable	out_freq3 equal 1000

timestep	2.0

neigh_modify    delay 7 every 1

include		in.tip4p
# This is TIP4P/Ice

# create groups ###
group ox type 2
324 atoms in group ox
group hy type 1
648 atoms in group hy

# set charges - beside manually ###
set group ox charge -1.1794
Setting atom values ...
  324 settings made for charge
set group hy charge 0.5897
Setting atom values ...
  648 settings made for charge

# ### TIP3P Potential Parameters ###
pair_style lj/cut/tip4p/long/omp 2 1 1 1 0.1577 8.5
pair_coeff 1 1*2 0.000 0.000
pair_coeff 2 2 0.21084 3.1668
bond_style  harmonic
bond_coeff  1 450 0.9572
angle_style harmonic
angle_coeff 1 55 104.52
kspace_style pppm/tip4p/omp 1.0e-5
pair_modify tail yes

thermo          ${out_freq}
thermo          1000
thermo_style    custom step temp pe etotal epair emol press lx ly lz vol pxx pyy pzz pxy pxz pyz enthalpy

restart 	${out_freq3} restart.lmp.${pid} restart2.lmp.${pid}
restart 	1000 restart.lmp.${pid} restart2.lmp.${pid}
restart 	1000 restart.lmp.1 restart2.lmp.${pid}
restart 	1000 restart.lmp.1 restart2.lmp.1


include         in.dump
dump            myDump all atom ${out_freq2} dump.water.${pid}
dump            myDump all atom 10000 dump.water.${pid}
dump            myDump all atom 10000 dump.water.1
dump            myDump2 all dcd ${out_freq2} dump.dcd
dump            myDump2 all dcd 10000 dump.dcd
dump_modify     myDump append yes
dump_modify     myDump2 append yes


variable natoms 	equal  "count(all)"                        # NUMBER ATOMS
variable H      	equal  "enthalpy/v_natoms"                 # ENTHALPY-per-atom
variable Vol      	equal  "vol/v_natoms"                 # volume-per-atom
fix AVG all 		ave/time ${out_freq} 1 ${out_freq} v_Vol v_H file vol_enthalpy.dat
fix AVG all 		ave/time 1000 1 ${out_freq} v_Vol v_H file vol_enthalpy.dat
fix AVG all 		ave/time 1000 1 1000 v_Vol v_H file vol_enthalpy.dat


timer           timeout 02:55:00 every 1000
New timer settings: style=normal  mode=nosync  timeout=02:55:00

fix 		1 all shake 1e-6 200 0 b 1 a 1
Finding SHAKE clusters ...
       0 = # of size 2 clusters
       0 = # of size 3 clusters
       0 = # of size 4 clusters
     324 = # of frozen angles
  find clusters CPU = 0.002 seconds
fix             2 all nph aniso ${pressure} ${pressure} ${pressureDamp}
fix             2 all nph aniso 1847.4 ${pressure} ${pressureDamp}
fix             2 all nph aniso 1847.4 1847.4 ${pressureDamp}
fix             2 all nph aniso 1847.4 1847.4 1000
fix             3 all temp/csvr ${temperature} ${temperature} ${tempDamp} ${seed}
fix             3 all temp/csvr 157.72 ${temperature} ${tempDamp} ${seed}
fix             3 all temp/csvr 157.72 157.72 ${tempDamp} ${seed}
fix             3 all temp/csvr 157.72 157.72 100 ${seed}
fix             3 all temp/csvr 157.72 157.72 100 745823


run             250000
PPPM initialization ...
  extracting TIP4P info from pair style
  using 12-bit tables for long-range coulomb (../kspace.cpp:340)
  G vector (1/distance) = 0.37230617
  grid = 24 24 25
  stencil order = 5
  estimated absolute RMS force accuracy = 0.0034202533
  estimated relative force accuracy = 1.0299991e-05
  using double precision FFTW3
  3d grid and FFT values/proc = 3458 576
Last active /omp style is kspace_style pppm/tip4p/omp
Neighbor list info ...
  update every 1 steps, delay 7 steps, check yes
  max neighbors/atom: 2000, page size: 100000
  master list distance cutoff = 10.8154
  ghost atom cutoff = 10.8154
  binsize = 5.4077, bins = 4 4 4
  1 neighbor lists, perpetual/occasional/extra = 1 0 0
  (1) pair lj/cut/tip4p/long/omp, perpetual
      attributes: half, newton on, omp
      pair build: half/bin/newton/omp
      stencil: half/bin/3d
      bin: standard
Setting up Verlet run ...
  Unit style    : real
  Current step  : 19000000
  Time step     : 2
  Walltime left : 2:54:59.91
Per MPI rank memory allocation (min/avg/max) = 10.19 | 10.19 | 10.20 Mbytes
Step Temp PotEng TotEng E_pair E_mol Press Lx Ly Lz Volume Pxx Pyy Pzz Pxy Pxz Pyz Enthalpy 
19000000    166.21312   -4904.0529   -4583.4969   -4904.0529            0    2480.5649    20.074872    19.974808    20.812593    8345.6774    2191.1711    2952.7193    2297.8043       46.383    301.59718   -525.66186   -4281.5796 
19001000    146.18321   -4907.7409   -4625.8143   -4907.7409            0    2178.4114    20.072857    19.970234    20.808189    8341.1632    1807.6191    2855.3718    1872.2433    167.61776    432.85516   -577.20757   -4360.8164 
19002000    159.00459   -4927.4188   -4620.7651   -4927.4188            0    2117.3274    20.020323    19.942476    20.930716    8356.6888    2082.0803    1668.8684    2601.0335    64.712654    -74.28893    106.97312   -4362.7185 
19003000    158.54305   -4933.3265   -4627.5629   -4933.3265            0    549.25069    20.073995    20.011067    20.787749    8350.4816    317.71525    1319.7894    10.247413     -529.279    1019.7355   -161.42646   -4560.6734 
19004000    150.86917   -4938.0389    -4647.075   -4938.0389            0    236.10926    20.171124    19.938332    20.906342    8408.0827   -1185.8528    1210.9541    683.22643    28.145604    359.68306    177.58356   -4618.1226 
19005000    151.65045   -4918.1074   -4625.6367   -4918.1074            0    1041.1363    19.941009    19.940876    21.052559    8371.3646    1897.2189    837.84575    388.34432    23.131466   -63.220609   -622.72309   -4498.5267 
19006000    163.68464   -4929.1902   -4613.5106   -4929.1902            0     2107.429    19.962456    20.048279    20.908914    8368.0172     1294.762    2481.6128    2545.9122    15.799242     710.5319    325.97938   -4356.3222 
19007000    158.96104   -4929.8238   -4623.2541   -4929.8238            0    2470.8713    19.952408    20.198708    20.839037       8398.4    2498.4236    1176.1056    3738.0846    109.51895    1248.0142   -506.80298   -4320.6167 
19008000    164.93583   -4939.3087   -4621.2161   -4939.3087            0    1388.6633    20.099337    20.057996    20.853078    8406.9688    1609.2726    1348.1186    1208.5986   -439.05182   -1002.6236    941.53924   -4450.9562 
19009000    162.30176   -4917.0259   -4604.0133   -4917.0259            0    1983.5776    20.059958    19.963738    20.940256    8385.9808    1368.6336    2188.2802    2393.8191    400.17122    176.53918     -179.031   -4361.4199 
19010000    165.56469   -4934.8806   -4615.5751   -4934.8806            0    2430.1295    19.938488    19.926536    21.059952    8367.2242     2566.906    1844.6001    2878.8824    323.85398    -902.6125   -120.15821   -4319.0328 
19011000    150.89371   -4920.7385   -4629.7272   -4920.7385            0    874.72536    20.259141    20.019586    20.734075     8409.318    -621.3895     1240.816    2004.7496    184.47644   -42.470238   -197.11665   -4522.4498 
19012000    165.76046   -4918.0825   -4598.3995   -4918.0825            0    1347.2621    20.038767    20.071505    20.905769    8408.4721    1566.8497    1516.4322    958.50447    268.74746    167.38024   -379.89099   -4433.1861 
19013000    160.16528   -4904.8645   -4595.9723   -4904.8645            0    1541.2562    19.978233    19.962691    21.121492    8423.6586    2835.6953    515.17612    1272.8972   -76.318111   -731.82206   -251.57455   -4406.6283 
19014000    155.10632   -4927.6757   -4628.5401   -4927.6757            0    1519.9699    20.125036     19.91284    20.840067    8351.5864    637.32459    1502.3847    2420.2004   -211.35182    33.149421    108.52561   -4443.4088 
19015000    151.10868   -4920.9776   -4629.5518   -4920.9776            0    955.60197    20.155417    20.017115    20.956563     8454.995    1378.9089    227.14144    1260.7555    401.13481    338.77471    10.542325    -4511.719 
19016000    148.14237   -4910.7326   -4625.0276   -4910.7326            0    1397.0162    20.177017     19.93131    20.900536    8405.2418     1636.405    1287.2095     1267.434   -386.50309    392.91564   -444.97276   -4453.7788 
19017000    162.06678   -4935.0451   -4622.4856   -4935.0451            0    2328.9724    19.961369    19.925153     20.94726    8331.4236    3026.7332    1831.6698    2128.5143    471.23052     190.8784   -1760.3355   -4339.5032 
19018000    157.60672   -4942.1391   -4638.1813   -4942.1391            0    977.64582    19.994613    20.098749    20.777321    8349.7138    1168.0125    1643.4022     121.5228   -426.69662    787.32747   -1277.6658   -4519.1314 
19019000    158.62275   -4929.9371   -4624.0198   -4929.9371            0    678.98875     20.05721    20.059939    20.794856    8366.7357    248.58579    681.37146     1107.009     214.1431     768.3163    36.589856   -4541.1694 
19020000    156.79167   -4928.9295   -4626.5436   -4928.9295            0    1677.9619    20.047494    19.948405    20.996155    8396.6884    1197.3214    3072.0771    764.48719   -693.68431   -34.776165    866.17502   -4421.0653 
19021000    155.12424   -4938.6101   -4639.4399   -4938.6101            0     2056.059    20.001684     20.01633    20.807138    8330.3518    2344.8499    1021.9798    2801.3473   -504.28351    488.46673   -491.69452   -4389.6501 
19022000    156.54697   -4919.5394   -4617.6255   -4919.5394            0    1748.0489    20.020959    19.970229    20.910145    8360.3598    989.63042    2479.6376    1774.8787    182.48357    187.97536    -804.5166   -4404.4906 
19023000    160.28007   -4947.8937   -4638.7801   -4947.8937            0    930.92838    20.130065    20.100184    20.771213    8404.4067    128.61916    1182.6903    1481.4757    688.28468   -42.339042    136.91709   -4524.6766 
19024000    160.37045   -4904.4491   -4595.1612   -4904.4491            0    225.60679    20.029935    20.040164    21.222923    8518.9486    199.15933    778.98271   -301.32168   -154.89096    336.38662    1323.4217   -4567.1318 
19025000    157.40199   -4907.6973   -4604.1343   -4907.6973            0    2376.4295    19.976872    20.057593     20.84508    8352.3727    2166.2864    2435.0178    2527.9843   -513.57893    81.023347    66.560167   -4314.6596 
19026000    164.86396   -4919.4712   -4601.5172   -4919.4712            0    1798.4989    20.019107    20.111474    20.881139    8407.0335    2175.1569    990.03082     2230.309   -77.041799   -231.51693   -223.60683   -4381.0069 
19027000     165.3392   -4917.2229   -4598.3523   -4917.2229            0    2150.6192    19.910274     19.98874    20.992955    8354.8034    1844.9069    2817.9403    1789.0106   -77.042336    910.18305    -1693.257   -4336.3074 
19028000    154.21326   -4931.4435   -4634.0303   -4931.4435            0    2344.1375    19.985344    19.994505    20.926752    8362.2683    2796.3413    1535.3099    2700.7612   -300.75892    695.80435   -400.55461   -4348.1507 
19029000     157.0573   -4918.6688   -4615.7706   -4918.6688            0    1879.1114    20.008256    20.070959    20.737319    8327.7937     2310.689    927.56372    2399.0814    5.0401274    8.7021031    324.14968   -4387.5481 
19030000    162.02765    -4920.614     -4608.13    -4920.614            0    722.08302    19.925488     20.04607    21.025843    8398.3046    3329.4695   -840.72335   -322.49705    155.91594    143.42457    325.28761   -4519.6888 
19031000    161.40331   -4915.7121   -4604.4323   -4915.7121            0    740.51815    20.230846    19.994419    20.835747    8428.1432   -912.76033    1554.6147    1579.7001    24.190391    689.14644   -479.37997   -4513.4109 
19032000    157.88583   -4914.1684   -4609.6723   -4914.1684            0    2071.8798    20.065018     19.97164    20.865151     8361.319    2620.4881    1556.0294     2039.122    287.36655   -965.03855   -229.91456   -4357.0246 
19033000    158.86749   -4926.6343    -4620.245   -4926.6343            0    376.88742    20.180113    20.048082    20.775918    8405.3661    500.37313    157.15967    473.12946   -28.689703   -702.58225    1123.5886   -4574.0447 
19034000    149.59338   -4925.7388   -4637.2354   -4925.7388            0    1973.8307     20.06629     20.00477    20.937759    8404.8673    2973.3521    1309.9386    1638.2015   -269.44033   -359.89587    333.45668   -4395.2904 
19035000    148.44222   -4940.2496   -4653.9663   -4940.2496            0    2631.4877    19.988131    19.981116    20.898737    8346.6456    3501.7286    1827.3479    2565.3865    89.465074    467.01671    93.868554   -4333.6425 
19036000    157.59114   -4941.0537    -4637.126   -4941.0537            0    2198.8999    19.962478    19.931268    20.864869    8301.6619    4435.1387    1444.3047    717.25626    108.12284     612.9663    405.43669   -4370.9025 
19037000    160.31824   -4928.4991   -4619.3119   -4928.4991            0    3080.1813    20.060876    19.903349    20.829639    8316.8295    2857.3077    3866.1004    2517.1359   -641.26381    362.24658   -867.81202   -4245.7092 
19038000    155.14789   -4905.4781   -4606.2623   -4905.4781            0    2040.6706    20.230432    19.933305    20.757881      8370.81    1755.8241     2344.573    2021.6146   -341.66393   -224.63121   -446.92685   -4357.1379 
19039000    158.02526   -4939.9296   -4635.1646   -4939.9296            0    1546.1449    20.061186    19.966793    20.910437    8375.8332    1793.7401    1757.0478    1087.6466    807.27739   -193.17115    210.33285   -4446.2984 
19040000    155.60866    -4928.201   -4628.0966    -4928.201            0    1337.0715    19.952713    20.029067    20.974861    8382.2718    2585.2118    1655.9609   -229.95833   -311.31291   -52.753889   -670.61594   -4464.6439 
19041000    159.44478   -4929.5133   -4622.0107   -4929.5133            0    1417.7555    19.977991    20.178873    20.733525    8358.3751    3136.1503    66.043266    1051.0731    19.323103     44.56225   -101.54416   -4449.1886 
19042000    153.76402   -4925.1491   -4628.6023   -4925.1491            0    848.23543    19.977299    20.143624    20.850042    8390.3739    1486.1852    350.84436    707.67669   -212.53179    910.46161    831.41681   -4524.8079 
19043000    159.28974   -4918.5271   -4611.3234   -4918.5271            0    1077.9703    19.987508    20.131113     20.88344    8402.8863    1869.0447    713.47226    651.39392    29.731424   -514.63423    74.773873   -4479.2209 
19044000    150.79539   -4933.6511   -4642.8295   -4933.6511            0    1357.6912    20.008925    19.988143    21.045176    8416.8339    1175.2658    1461.1119     1436.696    26.189733    640.41379   -1009.0529   -4476.1717 
19045000    151.80906   -4942.9904   -4650.2139   -4942.9904            0    1231.4762    20.102077    20.061184    20.823566    8397.5498   -271.06726    2370.3474    1595.1483   -296.69356    1354.6895   -986.47677   -4499.3954 
19046000    154.75521   -4929.6238   -4631.1654   -4929.6238            0    1974.1929    19.979737      20.0278    20.984783    8397.0647    3169.3519    1664.7962    1088.4306    211.72219    676.68374    99.222883   -4389.4007 
19047000     161.1797   -4940.9661   -4630.1175   -4940.9661            0    505.88363    20.137996    20.042374    20.905014    8437.5404    58.437292    1037.3209    421.89273   -466.45124    254.38429   -712.72325    -4567.867 
19048000    152.35592   -4937.3892    -4643.558   -4937.3892            0    2215.0676    20.017373    19.949656    20.957683    8369.2349    1022.7169    3033.8223    2588.6637   -237.29364    596.53258    563.20276   -4373.1941 
19049000    167.01232   -4940.1058   -4618.0085   -4940.1058            0    1272.3237    20.050063    19.927242    20.878697     8341.926    1664.6096    1025.3543    1127.0072    400.49441     316.8147   -171.41193   -4463.2196 
19050000    154.44732   -4934.6642   -4636.7996   -4934.6642            0    3823.6319    19.996502    19.881457    20.922566    8317.9669    3730.3389    4375.5374    3365.0193    190.08724    796.39782    805.02559   -4172.9586 
19051000    170.01377   -4911.4302   -4583.5444   -4911.4302            0    1795.2956    20.186579     19.93182    20.885746    8403.4896     1804.335    1885.5661    1695.9857   -265.78624   -89.245073    487.52855   -4363.5197 
19052000    151.76448   -4925.5479   -4632.8574   -4925.5479            0    1948.0014    20.268764    19.934122    20.742259    8380.7026    1349.7691    1826.3129    2667.9221   -238.71206   -531.07857   -389.12732   -4394.7649 
19053000    153.27546   -4942.5148   -4646.9102   -4942.5148            0    3156.2465      20.0672    19.878176    20.943055    8354.1705    3366.3367    3886.9581    2215.4446    473.90699    140.92758   -313.65152   -4262.3626 
19054000    163.39414   -4922.8079   -4607.6886   -4922.8079            0    2032.6081    20.066169    20.079719    20.780273    8372.8508    1937.8641    2460.1547    1699.8055   -314.47966   -669.68579    602.08204    -4359.488 
19055000    158.46791   -4925.7801   -4620.1614   -4925.7801            0    1675.8888    19.885917     19.84372    21.269845    8393.3055    2655.4881    2837.2415   -465.06316   -73.947218    147.16094   -293.11479   -4415.0196 
19056000    165.97223     -4915.52   -4595.4286     -4915.52            0    2907.2419     19.94045    20.136316    20.722709    8320.7314    3305.6399    1648.1555    3767.9304    -717.8682   -461.05842    288.08268   -4242.6367 
19057000    150.70476   -4935.3168     -4644.67   -4935.3168            0     1423.293    20.103071    19.894406    20.996544    8397.3294    -41.21408    3025.7034    1285.3897   -40.284073    261.39774   -643.91339   -4470.3643 
19058000    162.14697   -4938.8651    -4626.151   -4938.8651            0    2137.2458    20.099186    19.975403    20.788425     8346.331     300.2217    3657.8551    2453.6606   -170.48179   -1040.2619   -342.14815   -4365.9998 
19059000    161.02974   -4933.3042   -4622.7448   -4933.3042            0    3022.3193    20.029596    19.940381    20.828232    8318.7494    2393.4563    3622.9306    3050.5709    184.49764    996.12186    420.36465   -4256.0757 
19060000    159.00841   -4931.2295   -4624.5684   -4931.2295            0    2810.5198    20.026207    20.015821    20.918118    8384.8387    2602.3037    2729.6406    3099.6152    3.4239512    290.63201    289.04799    -4280.886 
19061000    154.07289   -4918.9046   -4621.7621   -4918.9046            0    1192.9053    20.068303    20.067354     20.90491    8418.7779    864.79179     1572.209    1141.7151    359.53585   -837.30997     1425.777   -4475.2981 
19062000    161.69385   -4908.5898   -4596.7496   -4908.5898            0    550.53225    20.091342    20.089598    20.857875    8418.8012    1381.5954   -16.020869    286.02225   -545.31327    560.84742   -54.900724   -4529.1555 
19063000    166.74362   -4927.4508   -4605.8717   -4927.4508            0    1948.9082    20.028574    20.099579    21.023735     8463.439    1094.4431    3405.8676     1346.414   -42.922612    1217.6923     486.1491   -4365.3168 
19064000    162.39648   -4938.3751   -4625.1798   -4938.3751            0      2534.78    19.990943    20.151454    20.775387    8369.2937    3835.5926     1456.752    2311.9954   -555.96259    165.56008    1022.6033   -4315.7907 
19065000    156.81614   -4932.8701    -4630.437   -4932.8701            0     1153.097    19.915855    19.960847    21.139946    8403.9177    13.185321    3481.9778   -35.871958   -139.49273   -501.86934   -857.43634   -4489.1105 
19066000    159.62334   -4905.6342   -4597.7872   -4905.6342            0    1079.5202    20.101944    20.023548    20.776958      8362.98    198.56043    1263.8074    1776.1927   -314.06831   -87.555907    38.615946    -4466.123 
19067000    153.60219    -4933.962   -4637.7273    -4933.962            0    156.33238    20.086523    20.087064    21.040375    8489.3552   -303.92388    393.45111    379.46991   -33.264442   -486.02976    697.94923    -4618.372 
19068000    151.27937   -4918.2064   -4626.4514   -4918.2064            0    1040.8818    19.955209     20.15965    20.831834    8380.4389     1830.488    369.79868    922.35884   -64.974892    495.41215   -249.13029   -4499.2347 
19069000    151.89078   -4936.8547   -4643.9206   -4936.8547            0    2198.7041     19.88417    20.155644    20.909741    8380.1696     3311.467     1362.788    1921.8573   -97.176206    367.64953   -750.04616   -4375.2034 
19070000    154.28788   -4914.8978   -4617.3406   -4914.8978            0    594.10926    19.977574    20.170923    20.989945    8458.2359    2328.5485    -1841.062    1294.8413   -296.22574     597.7533     202.6509   -4544.0544 
19071000    159.28309    -4922.546   -4615.3552    -4922.546            0     1799.409    20.032137    20.084388    20.765337     8354.585    1794.8179    2035.5694    1567.8396   -562.23434   -1272.4825    -324.6697   -4396.1097 
19072000     172.1967   -4914.7368   -4582.6409   -4914.7368            0     3227.962    19.940356    20.055357    20.857887    8341.2976    2376.6731    3393.4192    3913.7937   -662.17609    674.23745   -271.66914   -4189.9617 
19073000    155.20944   -4944.7462   -4645.4117   -4944.7462            0    409.08988    20.169929    19.948357    20.966101    8435.8568   -323.67118    1187.9392    363.00161    -199.0055     1268.184    912.99604   -4595.0821 
19074000    151.85991   -4934.7107   -4641.8361   -4934.7107            0    1905.1508    20.068396    20.011154    20.853622    8374.6427    2230.2252    2532.8539    952.37322    37.132789   -444.99526    140.26292   -4409.1494 
19075000      153.183   -4922.8874   -4627.4611   -4922.8874            0    1429.8668    20.098149    19.929807    20.929762    8383.4628    2099.8977    1641.2817    548.42089   -256.15697   -201.00343    177.24905   -4452.6395 
19076000    164.88788   -4945.0524   -4627.0522   -4945.0524            0    1070.0111    20.102323    20.051334     20.94643    8443.0532    188.63141    989.57026    2031.8315    486.30528   -69.899889     354.9768   -4495.2983 
19077000    151.11487   -4942.8121   -4651.3744   -4942.8121            0    1176.8064    20.203208    20.038333    20.702649    8381.2319    1129.7108    691.51519    1709.1931   -143.79435   -113.73029   -303.49649   -4507.5314 
19078000     162.6011   -4913.0735   -4599.4836   -4913.0735            0    1172.9192    20.097859    19.765832    21.183554    8415.1861    799.69771    2945.0932    -226.0334    74.569171   -343.68256    63.333034   -4455.5349 
19079000    156.64377    -4940.389   -4638.2883    -4940.389            0    962.19343    20.174965    19.955944    20.854538    8396.2555    472.84398    1736.1343      677.602   -330.86252   -300.30432   -134.48529   -4520.4669 
19080000    156.79661   -4909.9417   -4607.5462   -4909.9417            0    3274.4161    20.159013    19.916236    20.885213    8385.2389    2496.8261    4678.4713    2647.9507   -294.54899   -249.52309   -355.60306   -4207.1175 
19081000     162.7138   -4928.6017   -4614.7945   -4928.6017            0    1486.2695    20.117334    20.061395    20.669657    8341.8969    733.63236    1661.6839    2063.4921    252.95139    434.75601   -1338.8101   -4433.9779 
19082000    155.88991    -4941.041   -4640.3942    -4941.041            0    2173.8331    20.004388    19.888239    20.901407    8315.6674    2427.3001    2053.5147    2040.6846    124.12929   -416.12803    -263.9357   -4376.7615 
19083000    157.54288   -4921.1157    -4617.281   -4921.1157            0    3084.1082    20.082474    19.827969    20.913731    8327.7362    1419.5991    5327.5104    2505.2152   -426.54288    196.25964    -166.6955   -4242.7114 
19084000    165.01645   -4920.3422   -4602.0941   -4920.3422            0    2715.7777    20.114407    19.880503    20.856509    8340.1951    2463.0935    3312.2005     2372.039    209.89504     839.0679   -608.80497   -4271.7654 
19085000    156.90613   -4936.9311   -4634.3244   -4936.9311            0    2394.3941    20.086108    19.859451    20.857866    8320.1835    2513.7764    2274.0968     2395.309   -250.36329    681.85853   -1500.3913   -4343.7854 
19086000    150.61195   -4921.0308    -4630.563   -4921.0308            0    1243.2671    20.042562     19.96563    20.932402    8376.3597    1111.6659     1447.766    1170.3694     223.0954    1423.3179   -688.08501   -4478.6847 
19087000    152.61569   -4923.2381   -4628.9059   -4923.2381            0    2525.4222    20.061184    20.016847    20.672324    8301.2125    3010.8202    1083.2164    3482.2301    257.22948    -24.87327   -1107.1446   -4323.1665 
19088000    161.91342   -4933.5814   -4621.3178   -4933.5814            0     1743.648    20.100423    19.936427    21.051091    8435.8165    2130.2222    2266.1866    834.53532    271.85629    519.16402   -414.65061   -4406.8007 
19089000    151.45102   -4947.5652   -4655.4791   -4947.5652            0    1538.0901    20.099327    19.987403    20.754176    8337.6446    1734.0801    1836.3243    1043.8659   -556.54566   -238.37219   -81.817846   -4468.4535 
19090000    155.81542   -4927.6128   -4627.1096   -4927.6128            0    2601.7299    20.081073    19.768384    20.953354    8317.8607    360.07387    4673.3025    2771.8134    27.349123    1065.1383   -536.89569   -4311.5004 
19091000    151.91621   -4928.4696   -4635.4864   -4928.4696            0    1698.3597    20.018024    20.019442    20.961612     8400.359    3595.4585    367.78149    1131.8392   -451.19443   -321.83421    689.39132   -4427.4193 
19092000    157.87863   -4934.6616   -4630.1793   -4934.6616            0    1258.3491    20.123722    20.101305    20.752566    8394.6841    -16.14154     2659.695    1131.4939    168.24697    62.636423    428.32912   -4476.1224 
19093000    163.83917   -4928.2652   -4612.2876   -4928.2652            0    844.39871    20.082818    20.040008    20.955026    8433.5566    983.32641    594.58405    955.28568   -278.86209    563.51801    590.10839    -4508.431 
19094000    159.97388   -4935.3814   -4626.8583   -4935.3814            0    1738.8998    20.033164    20.022967     20.87373    8372.9413    593.45624    3074.2079    1549.0351   -293.79824   -723.41817    1545.8841   -4414.5199 
19095000    154.35007   -4949.5524   -4651.8753   -4949.5524            0    2144.2501    20.003437    20.163575    20.690566    8345.3495    2890.9333   -30.413043    3572.2299    134.85958    1251.9595    80.496769   -4390.9022 
19096000    156.05428   -4919.2566   -4618.2928   -4919.2566            0    2558.9922     19.95369    19.841906    21.022993    8323.4074    2112.7163    4070.7357    1493.5245    72.457937    256.56559   -239.86109   -4307.6609 
19097000    160.41346   -4932.7815   -4623.4106   -4932.7815            0    2257.3403    20.056575    19.960068    20.865441    8353.0744    2064.9983    1629.1443    3077.8783   -292.84668    845.25761   -393.52601   -4348.4191 
19098000    159.25002    -4933.853   -4626.7259    -4933.853            0    1148.6836    20.219923    19.947425     20.71386     8354.633   -447.14457     2187.197    1705.9985   -436.99575    371.73393    538.28722    -4486.766 
19099000    153.81242   -4926.5408   -4629.9006   -4926.5408            0    1652.2942    20.169815    19.849687    20.987562     8402.675    1745.4972    1735.5943    1475.7912   -141.54344     1267.962   -28.395427   -4427.4212 
19100000    165.95582   -4943.2971   -4623.2374   -4943.2971            0    2947.0927    20.130651    19.937781    20.791796    8345.0055    2044.4919    3227.0153    3569.7707   -354.08342   -121.57175   -594.41132   -4264.5664 
19101000    147.10893   -4937.3246   -4653.6127   -4937.3246            0    1465.2525    20.018098    20.030701    20.927988    8391.6322    1556.7362    1040.1784     1798.843    11.324929   -73.166217    724.86632   -4474.2902 
19102000    158.93179    -4929.303   -4622.7897    -4929.303            0    1737.2045    20.012299    20.099894    20.820179    8374.8149    3195.8325     309.6154    1706.1656   -417.39848   -1382.6748   -554.91972   -4410.6109 
19103000    158.70751   -4917.4898    -4611.409   -4917.4898            0    1538.3673    20.100157    19.965853    20.915007    8393.5431    171.47128    2794.6107      1649.02   -270.68152   -371.10877   -323.56419   -4423.0956 
19104000    162.26168    -4924.798   -4611.8627    -4924.798            0   -389.82203    20.169292    19.979003    20.908604      8425.38   -1343.9781    291.66601   -117.15395   -212.94549     964.9548   -657.19848   -4659.7623 
19105000    164.42686   -4913.8478   -4596.7368   -4913.8478            0    1799.1904     20.20696    19.920998    20.967667     8440.384    1146.0364    2260.5719     1990.963   -526.36206   -224.72102    733.11616   -4375.2666 
19106000    153.67582   -4937.1292   -4640.7524   -4937.1292            0    2282.8629    20.059375    19.990498    20.741078    8317.1082    3076.5368     1055.297     2716.755   -407.85371     86.50264    100.80396   -4363.8492 
19107000    151.69187   -4913.7448   -4621.1942   -4913.7448            0    1705.7474    20.138835    19.886114    20.912458    8375.0874    1737.9699    2305.9153    1073.3568    18.680518   -86.382299   -748.42888   -4412.8507 
19108000    163.26676   -4925.2958   -4610.4221   -4925.2958            0    1626.2901    20.160372    20.057006    20.697363    8369.1173    1182.8778    1716.0637    1979.9288   -501.15873    972.18247   -961.16382   -4411.9253 
19109000    156.61564   -4925.6134    -4623.567   -4925.6134            0    1533.3911    20.084632    19.863651    21.138822    8433.4203   -21.583101    3949.9694    671.78705    449.56213    897.14454    497.24919   -4434.9709 
19110000    168.60347   -4935.4108   -4610.2449   -4935.4108            0    2569.0509    19.963576    20.036222    20.884272    8353.5969    3393.9394    1827.4825    2485.7307   -65.558286    547.61217    772.29582   -4297.2609 
19111000    162.52148   -4919.9528   -4606.5164   -4919.9528            0    1478.7116    19.969474    20.012873    20.877235     8343.515    1370.4314    1671.3581    1394.3451   -59.827838    39.835292     440.9844   -4426.5844 
19112000     160.3735    -4926.198   -4616.9043    -4926.198            0    2328.9225    19.810651    20.235748    20.822462    8347.3784    3933.3394     1263.289     1790.139   -76.039788   -1079.0576    406.23984    -4333.386 
19113000    159.59457   -4951.3794   -4643.5878   -4951.3794            0    1079.4081    20.033234    20.052712    20.841588    8372.4968    148.76212    1441.9977    1647.4644   -51.530411   -24.697878   -753.23496   -4511.7875 
19114000    158.36041   -4919.6958   -4614.2844   -4919.6958            0    2079.0574    19.945586    20.019794    20.972995    8374.6536    2312.5133    3018.6852     905.9738    192.66889   -243.18824   -26.674287   -4360.3572 
19115000    154.47665   -4924.6458   -4626.7246   -4924.6458            0    2151.9186    20.052082     20.00379     20.85303    8364.5181    3234.2709    842.91903     2378.566   -238.56854   -1191.2154    -639.0104   -4364.2165 
19116000    155.27201   -4940.3927   -4640.9376   -4940.3927            0     1946.537    20.111023    19.930631    20.851447    8357.7893    1059.7503    3085.8201    1694.0404   -381.40693    680.27399   -361.20431   -4403.6746 
19117000    156.82112   -4944.4084   -4641.9657   -4944.4084            0    2081.1468    20.069369    19.942648    20.895368    8363.0858     1601.338      1750.15    2891.9523   -186.41893    30.766226   -336.29444   -4388.1344 
19118000    156.85922   -4937.2702    -4634.754   -4937.2702            0    1377.0308    20.270046     19.83097    20.925329    8411.4526   -178.63623    3140.6957    1169.0328    199.09515    -533.9203     62.49488   -4465.8303 
19119000     150.0156   -4930.6662   -4641.3485   -4930.6662            0    2484.8598    20.216517    19.926372    20.784745     8372.965    2248.2993    2910.8101    2295.4702   -504.98203   -203.00692    958.96638   -4337.9195 
19120000    161.38961    -4927.283   -4616.0295    -4927.283            0    1844.4192    20.196645    19.826494    20.985437    8403.1705    1566.7476    1741.6127    2224.8972   -850.95579    1771.6937     159.3574    -4389.993 
19121000    154.86633   -4941.9634   -4643.2907   -4941.9634            0    2365.7666    20.114186      19.9334    20.899583    8379.5648    2838.2725    2098.3392    2160.6882   -276.97594    201.34752   -309.07013   -4354.1766 
19122000    159.13137   -4911.2771   -4604.3789   -4911.2771            0    1600.6173    20.089315    19.929218    20.898155    8366.8758    1459.3797    2106.3068    1236.1654   -290.35291   -222.36014    1057.4782   -4409.0679 
19123000    162.20056   -4933.9268   -4621.1094   -4933.9268            0    3302.1313    20.103736    19.930164    20.637133    8268.6955    3884.5005    1808.8668    4213.0268   -556.57711    138.33711   -1447.6966   -4222.9039 
19124000    157.63016   -4922.2744   -4618.2714   -4922.2744            0    2012.2946    20.075918    19.978123    20.814972    8348.4516    2348.7571    2168.2236     1519.903   -23.098525   -83.279735    942.43042   -4373.2673 
19125000    160.45831   -4914.7505   -4605.2931   -4914.7505            0     1938.766    20.076195    19.847883    21.063284    8393.0862    1139.7345    2340.1078    2336.4558    37.228502    90.193961   -387.03668   -4367.9794 
19126000    147.46402   -4931.4477   -4647.0509   -4931.4477            0    627.34412    20.018196    20.045906    20.868545    8374.1899   -875.95361    2469.7322    288.25378   -293.86036    507.45868    961.28915    -4570.434 
19127000    159.84625   -4934.0946   -4625.8177   -4934.0946            0    2908.4535    20.138539    19.913647    20.675954     8291.714    1831.3728    2527.2794    4366.7084   -102.42463    728.75691   -109.51584   -4274.1096 
19128000    156.18936   -4936.5428   -4635.3184   -4936.5428            0    1335.4434     20.04079    19.924572    20.969361    8373.1529    2145.4547    482.75323    1378.1225   -98.783682   -539.62506   -310.94363   -4472.2423 
19129000    159.50185   -4904.1167    -4596.504   -4904.1167            0    1565.9972    20.054429    20.112285    20.865809    8416.0236    2421.0045    1312.5965    964.39064    232.85868   -1143.8687    231.62058    -4404.295 
19130000    148.95083   -4938.1857   -4650.9215   -4938.1857            0    1820.1327    19.952587    20.242506    20.776419    8391.3955     2813.807    721.17667    1925.4144   -109.06512    404.98401   -142.04419   -4428.1738 
19131000    153.98566   -4947.4913    -4650.517   -4947.4913            0    2534.5775    19.924817    20.043147    20.909542    8350.3514    2376.7548    3644.0784    1582.8992    189.15944    563.68634    707.53267   -4341.8528 
19132000    161.26729   -4913.7018   -4602.6842   -4913.7018            0    948.09707    20.019201    20.119849    20.733043    8350.9233    766.34262    266.53989    1811.4087   -114.99051    54.598343   -24.691615   -4487.2158 
19133000    160.62302   -4915.3562   -4605.5812   -4915.3562            0    1698.4748    19.959761    20.017306    20.979435     8382.137    1827.3043    1750.1707    1517.9495    17.885908   -983.59736    774.76846   -4397.9513 
19134000    156.51592    -4937.281   -4635.4269    -4937.281            0    1422.5172    20.154528    20.098234     20.69896    8384.5365    807.03157    1684.6767    1775.8434   -32.894245    514.50855    254.02293   -4461.4817 
19135000    156.43513    -4927.856   -4626.1577    -4927.856            0    2800.9776    19.888915    20.020261    20.808199    8285.4351    2463.9331    3437.2303    2501.7694    43.681186   -770.75724   -573.16741   -4287.7028 
19136000    158.96284   -4929.0605   -4622.4872   -4929.0605            0     1013.796    19.886547    20.064296    20.981897    8371.9774    1535.7514   -25.335307     1530.972   -410.92599    416.83654   -293.49191   -4498.7061 
19137000    158.73697   -4941.3074   -4635.1698   -4941.3074            0    1001.4749    20.067296    20.135384     20.74669    8382.9639    194.42511    1110.5302    1699.4692   -11.044341    790.53422    58.523482   -4512.7326 
19138000    160.04936   -4941.7915   -4633.1229   -4941.7915            0    1267.2107    19.992944     20.01919    20.979771     8396.997    1666.3663    1205.1155    930.15041    249.06395    109.18865    4.7516624   -4477.9382 
19139000    151.10719    -4940.339   -4648.9161    -4940.339            0    2071.3684    20.003504    20.122938    20.628604    8303.6169    1858.9838    1718.5324     2636.589   -54.803738   -496.21899    505.42228   -4398.0739 
19140000    160.71111     -4924.34   -4614.3951     -4924.34            0    2767.2335    19.894243    19.914747    21.041258    8336.3111     2389.298     4578.579    1333.8236    338.10641    149.18282   -607.13134   -4277.9644 
19141000    157.01742   -4931.9121   -4629.0908   -4931.9121            0    1845.7997    20.067789    20.005523    20.955627    8412.9845    2067.7289    1895.6084    1574.0617     25.71186    193.55972    215.49466   -4402.6208 
19142000    158.81221   -4931.9385   -4625.6558   -4931.9385            0    1616.0642    20.196983    20.078407    20.730427    8406.6697    1166.6935    872.53194    2808.9673    98.009475    1039.3672   -1021.3805    -4427.522 
19143000     159.3159   -4939.1555   -4631.9014   -4939.1555            0    2976.5082     19.87455    20.002355    20.903753    8310.0322    4127.7618    1874.1238    2927.6389    96.077864   -457.12373    154.00361   -4271.1685 
19144000     154.9886   -4926.1942   -4627.2856   -4926.1942            0    2272.3472    20.102987    19.925875    20.832096    8344.7048    1706.5798    2637.6671    2472.7949   -141.44195   -143.98203   -424.74583   -4350.7433 
19145000    153.94834   -4923.1075   -4626.2052   -4923.1075            0    925.03263    20.030528     20.17792    20.854158    8428.7167    1720.6852    506.17519    548.23753    510.46842     341.7178     763.6158   -4512.4963 
19146000    152.08442   -4929.2864   -4635.9788   -4929.2864            0    1887.7518    20.030965    20.014993    20.765144    8325.1537    943.63021    3268.8537    1450.7715    25.391732     586.2402    615.28115   -4406.7797 
19147000    146.37867   -4924.8437   -4642.5402   -4924.8437            0    621.56335    20.016612    20.143493    20.927643    8438.1195    1677.2116   -751.07056    938.54905    57.228076    262.12297    176.81832   -4566.0498 
19148000    152.68195   -4931.3848   -4636.9248   -4931.3848            0    1192.6065     20.01007    20.041317    21.007901    8424.7597    1274.0594    1375.4178    928.34222   -37.393957    94.309086    167.92469   -4490.3935 
19149000    156.05376   -4908.6665   -4607.7037   -4908.6665            0    883.14178    20.090141    20.189738    20.717088    8403.1548    1076.5666    20.514231    1552.3445    190.29835   -774.59083    595.68717   -4499.4734 
19150000    153.54268    -4928.191    -4632.071    -4928.191            0    2107.8343    19.916669    20.131219    20.968565    8407.2796    1756.8902    1942.7066    2623.9063    518.91108    591.00738   -324.29121   -4373.6262 
19151000    159.52221   -4909.3295   -4601.6776   -4909.3295            0     812.2601    20.147718    20.048095    20.719012    8368.8935   -96.684924    960.64283    1572.8224    559.27472    426.97125    641.61409   -4502.5398 
19152000    161.12707   -4928.0816   -4617.3345   -4928.0816            0    2699.2821    20.005887    20.038895    20.822528    8347.6657    2714.3591    2946.6794    2436.8078     37.31867    1132.0617   -259.52359   -4288.7181 
19153000    152.35937   -4925.7167   -4631.8788   -4925.7167            0    2488.5233    20.038824    19.842907    21.082092    8382.8407    1438.5977    4303.6676    1723.3047   -878.96668    315.72985    93.415848   -4327.6441 
19154000    158.09535     -4929.13   -4624.2298     -4929.13            0    1078.9247    20.200368    19.961653    20.819407    8395.0663     325.6457     1620.307    1290.8215   -121.80134    647.01062   -1512.5539   -4492.1333 
19155000    153.16639   -4924.4671   -4629.0728   -4924.4671            0    2262.5272     19.96784     19.99435    20.967535    8371.1621    3702.9473    1076.4879    2008.1465   -195.95352    888.96641    239.32014   -4352.8526 
19156000    150.01863   -4928.2271   -4638.9035   -4928.2271            0    1659.3238    20.138904    20.129572    20.703099     8392.778    1116.8018    1072.2873    2788.8825   -477.80344    497.54017   -210.34443   -4435.8022 
19157000    161.62167   -4930.0701   -4618.3691   -4930.0701            0    2091.4574    20.143115    19.764098    20.921571    8329.0972     1366.038    3154.0724    1754.2618    2.9185523    2141.6577    571.45792    -4364.317 
19158000    159.32782   -4953.0519   -4645.7748   -4953.0519            0     1820.533    20.122342     19.85528    21.053704    8411.6859    1065.4059     3214.628    1181.5652   -98.068215    577.68975   -741.22407   -4422.4394 
19159000     149.6248   -4927.1237   -4638.5597   -4927.1237            0    1302.1672    20.203785    19.946541    20.712363    8346.9913    -56.01492    2591.4818    1371.0348   -128.23272    336.14927   -1234.6954   -4480.0439 
19160000    163.71832   -4935.5083   -4619.7638   -4935.5083            0    2136.7502    20.075907    19.901776    20.915251    8356.6091    2201.1598    2699.1178    1509.9731    296.51344    1137.7521   -341.58918   -4359.3525 
19161000     154.1818   -4931.6553   -4634.3027   -4931.6553            0    2462.4182    20.092443    19.858016    20.854218    8320.7502    2597.9384     2439.286    2350.0302    85.938458    98.565228   -737.88871   -4335.4893 
19162000    149.24492   -4907.4112   -4619.5798   -4907.4112            0    1655.0835     19.96744    19.999646    21.049938    8406.1188    2856.7461    1397.6642     710.8403   -574.28461    483.15094    189.74589   -4416.6755 
19163000    153.80508   -4916.9376   -4620.3116   -4916.9376            0    1421.7162    20.068048    20.090519    20.792081    8382.8993   -61.389853    2317.7425     2008.796   -68.794561   -290.74306    10.890967   -4446.4982 
19164000    161.68269    -4951.742   -4639.9234    -4951.742            0    1203.1353    20.093598    19.919674    20.989211    8401.0978   -588.78491    3654.3704    543.82056   -10.300927   -364.84093    1048.5675   -4492.5135 
19165000     159.2809   -4938.5433   -4631.3567   -4938.5433            0    771.87885    20.157505     20.02463    20.949633    8456.2478    939.07342    467.61116    908.95196    281.01321    1094.7552    1054.8433   -4536.1642 
19166000    154.37161   -4911.6849   -4613.9662   -4911.6849            0    2307.8951    20.150071    19.989566    20.748667    8357.3797    2437.5737    1575.2229    2910.8886   -137.23624    1032.3828   -558.82666   -4332.6712 
19167000    160.20513   -4931.0445   -4622.0755   -4931.0445            0    979.14169    19.891441    20.005915    21.129868    8408.5565    1269.8558    569.92997    1097.6393   -315.10177    462.06991   -34.501231   -4502.0032 
19168000     165.4402   -4921.5323    -4602.467   -4921.5323            0    2090.8617    20.000425    19.909532    20.889958    8318.3625    3044.2518    1146.0787    2082.2546   -377.43159    785.36662    769.99638   -4348.8146 
19169000    162.97945   -4922.4662   -4608.1466   -4922.4662            0    1283.6963    20.120501    20.089009    20.817512    8414.4573    738.16418    925.52244    2187.4024   -404.36713    -675.5851    -25.31255   -4450.6162 
19170000    157.75819   -4924.1773   -4619.9274   -4924.1773            0    1030.3425    20.085944    20.140261    20.879431    8446.4848    1557.5023    726.44127    807.08389   -451.85586    620.14845   -106.38741   -4493.0064 
19171000    157.38905    -4918.608     -4615.07    -4918.608            0    2267.5516    19.987499    20.067633    20.895476    8381.2128    3323.9708    936.29116    2542.3928    -84.68195   -193.51948     370.3498    -4337.904 
19172000    157.33482   -4938.2959   -4634.8625   -4938.2959            0    1680.6184    19.996608    19.923282    21.057736    8389.3616    305.43954    3442.5962    1293.8196   -180.17929   -39.108096   -1395.0203   -4429.2384 
19173000    150.38794   -4931.6281   -4641.5923   -4931.6281            0     1057.025    20.150701    19.990505    20.756788    8361.3055   -240.80589    2204.3959    1207.4851    84.117666    793.25714   -354.81154   -4512.6975 
19174000    156.77256   -4928.3882   -4626.0391   -4928.3882            0    2036.3924    20.087103    19.976638    20.791118    8342.9099    2335.0631    1265.3029    2508.8111    2.0302061   -2081.4968   -412.13693   -4378.2656 
19175000    157.98906   -4933.6258   -4628.9306   -4933.6258            0    1533.8126    20.188274     19.87141    20.836582    8359.0003    352.69708    1787.6975    2461.0431   -855.19676   -62.036676    31.784413   -4441.9474 
19176000    151.51517   -4937.0588    -4644.849   -4937.0588            0    1224.4049    20.120451    19.901642    21.010433    8413.2082    1643.3562    962.19545    1067.6632    18.220378    564.20978    776.88039    -4494.617 
19177000     161.4927   -4934.9661   -4623.5139   -4934.9661            0    1776.6866    20.312424    19.948506    20.612479    8352.2283    1048.9247    1955.5477    2325.5874   -473.59372    334.78728    747.06406    -4407.098 
19178000    162.37501   -4933.1874   -4620.0335   -4933.1874            0    1603.9108    20.083756    19.879293    21.065912    8410.5837     2850.541    1289.7445    671.44703    265.32855    426.16612   -307.46952   -4423.2982 
19179000    167.21897   -4929.6191   -4607.1233   -4929.6191            0    2181.9168    20.064333    20.006782    20.761576    8334.1687     3260.214    252.98587    3032.5506   -38.745394    447.31818    158.56962   -4341.9215 
19180000    158.96544   -4915.7042    -4609.126   -4915.7042            0    2974.1451    19.992286    20.095295    20.812186    8361.3142    4052.7437    1821.6447    3048.0467    113.90893   -996.96921   -334.34878   -4246.4552 
19181000    156.28758   -4934.1692   -4632.7555   -4934.1692            0    2995.4797    20.012541    19.960701    21.020387    8396.8952     1472.977    4450.7058    3062.7562     294.4878    8.0497728   -47.091077   -4265.9287 
19182000    157.23233    -4929.377   -4626.1412    -4929.377            0    2502.9265    20.098755    20.109523    20.648977    8345.8287    2561.1809    1571.5946    3376.0039   -192.87309   -76.237977    702.04621   -4321.4966 
19183000    151.67169   -4933.8671   -4641.3555   -4933.8671            0    2255.7608    20.001312    20.012824    20.836734    8340.5849    2310.7939    2247.4113    2209.0773   -60.125371    194.79808    194.92267   -4366.9672 
19184000    153.27852   -4934.0159   -4638.4054   -4934.0159            0     2539.789    20.015036    19.952697    21.081487    8418.9752    3960.9822    2705.4043    952.98035   -72.341147   -10.965739    727.75996   -4326.5647 
19185000    162.05161   -4921.6195   -4609.0894   -4921.6195            0    1129.7142    20.198191     19.97824    20.762841    8378.3112    882.08655   -317.63555    2824.6915   -312.89828   -518.80084   -386.19491   -4471.0507 
19186000    158.51615   -4913.1849   -4607.4732   -4913.1849            0    2677.8172    20.080068       19.835    20.948568    8343.5663    1534.5259    3501.1098    2997.8161   -672.87763    386.97273   -219.18314   -4281.6301 
19187000    163.54303   -4945.5198   -4630.1134   -4945.5198            0    1507.6116    20.181032    19.931291    20.723522    8335.7057     1969.992    1204.5498    1348.2931    -45.63259   -583.87813     972.6198   -4446.8365 
19188000     156.0348   -4917.3464   -4616.4202   -4917.3464            0    1077.6658    20.001739    20.126156    21.018638    8461.2234    1273.9197    712.29504    1246.7827    15.397046   -100.11364   -1498.3535   -4483.4381 
19189000    151.84687   -4933.6041   -4640.7546   -4933.6041            0    669.03873    20.031099    20.158379    20.843611    8416.5351    1081.2081   -782.36387    1708.2719   -225.84066     116.8916    24.989136   -4558.6325 
19190000    163.64794   -4917.9083   -4602.2994   -4917.9083            0    1763.6278    20.001067    20.090214    20.886549    8392.7526    1562.8681    2837.0876    890.92769    320.24794   -39.947805   -406.30012    -4386.432 
19191000     147.8117   -4906.2759   -4621.2086   -4906.2759            0    2320.4255    20.112895    20.012084    20.804789    8373.9473     1975.053    1656.7877    3329.4359    183.36971    269.98768   -895.99115   -4337.8256 
19192000     158.9198    -4923.635   -4617.1448    -4923.635            0    1762.6831    20.021683    20.008492    20.944955    8390.6262    3199.6619     210.8239    1877.5634   -156.30368    130.03189    97.453298   -4401.4476 
19193000    159.41849   -4930.3731   -4622.9211   -4930.3731            0    1497.2546    20.021721    20.167028    20.789659    8394.4199    2427.2154   -370.53494    2435.0833   -316.81242    414.04657    490.03331   -4439.6212 
19194000    161.92347   -4923.4394   -4611.1564   -4923.4394            0    1773.1584    20.055916    20.014583    20.813114    8354.6085    1985.5329    954.42634    2379.5159    767.81943    653.95906   -787.48945   -4395.1087 
19195000    158.89643   -4929.1054   -4622.6603   -4929.1054            0    2777.6404    19.837878    20.080451     20.90011     8325.633    2159.2002    3459.5987    2714.1222     155.6659    700.31867   -129.90438   -4285.3969 
19196000    165.79619   -4942.2386   -4622.4867   -4942.2386            0    3239.0354    20.078578    19.769654    20.959713    8319.8857     2354.169     3496.471    3866.4661   -160.62508    67.302434   -546.73496   -4229.4719 
19197000    155.07766    -4925.061   -4625.9807    -4925.061            0    1090.8789    19.962227    20.192648    20.727715    8355.1395     1678.116   -60.990511    1655.5111   -318.68501    84.362794   -1077.7062   -4493.0559 
19198000    156.76622   -4924.3975   -4622.0606   -4924.3975            0    2447.4873      19.9618    19.902791    21.158096    8406.0175     2162.611    2973.0651    2206.7857   -363.07171    241.75016   -333.53624   -4322.0155 
19199000    158.33069   -4911.8026   -4606.4485   -4911.8026            0    1283.7664    20.233116    20.058282    20.669408    8388.5043   -656.33567    2537.1575    1970.4773   -440.38176   -236.21263    243.92269   -4449.3954 
19200000    150.04993   -4918.0639     -4628.68   -4918.0639            0    1783.8612    19.966147    19.973077    20.967734     8361.626    2281.5735    1852.8626    1217.1474    547.07817   -107.48061   -15.458607   -4411.1457 
19201000    150.26175   -4920.1649   -4630.3725   -4920.1649            0    1981.8461    20.009663    20.026968    20.884865    8369.2519    1163.7244    1950.0065    2831.8072    164.49353    549.84766    292.24154   -4388.4744 
19202000    156.41739   -4924.3257   -4622.6616   -4924.3257            0    2519.7953    20.073486    20.026914    20.759695    8345.6042    3261.0368    1759.9241     2538.425    110.62967    19.327459   -1283.6374   -4315.9721 
19203000    151.25847   -4931.4288   -4639.7141   -4931.4288            0    3234.9785    19.859822    20.024575    21.018902    8358.8916    3904.6514    3256.2939      2543.99   -287.55679    101.48716   -134.15601   -4245.3513 
19204000    156.52667   -4941.4368    -4639.562   -4941.4368            0     1573.583    20.193745    20.022787    20.685596    8363.9116    765.50512    1822.9412    2132.3027    468.99124   -876.59556   -236.05586   -4447.6178 
19205000     158.6491   -4950.4511   -4644.4829   -4950.4511            0    1799.9591    19.990687    20.021874    20.824326    8334.9575    2428.6866    1633.6725    1337.5181    -319.5048   -85.232607   -111.71741   -4425.6857 
19206000    148.74084   -4928.4054   -4641.5462   -4928.4054            0     2269.577    19.916606    19.710689    21.280302    8354.0087     2831.156    3736.1879    241.38719    -751.0978    539.76378   -371.50976   -4365.0331 
19207000    153.92727   -4922.8054   -4625.9437   -4922.8054            0    1789.7719    20.082389    20.103186    20.700572    8357.2352    2274.8241    1462.2462    1632.2453   -400.55475    256.46996    1320.1953   -4407.8033 
19208000    157.47163   -4921.5779   -4617.8806   -4921.5779            0     2054.969    19.984352    19.908088    21.038302    8370.0937    177.21399    3977.0685    2010.6245   -115.91019    -728.5426    61.865656   -4367.0322 
19209000    159.48743    -4936.367   -4628.7821    -4936.367            0    1847.6522    20.184231    20.045209    20.740029    8391.3561    2242.7539     1616.763    1683.4395   -454.80341    191.57559   -211.99258   -4402.6677 
19210000    160.74994   -4912.7484   -4602.7286   -4912.7484            0    2049.5871    20.089832    19.838378    20.875735    8320.0179     2188.527    2349.9582     1610.276   -159.26845    1269.0327    238.53448   -4354.0339 
19211000    160.53124   -4936.0122   -4626.4142   -4936.0122            0    1430.6467    20.124876    19.944632    20.886395    8383.4489    117.43665     2390.338    1784.1656    -568.0974    1928.2028    432.36781   -4451.4976 
19212000    159.20096   -4937.1779   -4630.1454   -4937.1779            0    1824.1771     20.14091    19.983486    20.908408    8415.3334     1666.018    2122.5749    1683.9385   -330.99862   -38.849451    389.70134    -4406.266 
19213000    157.89888   -4914.7046   -4610.1834   -4914.7046            0    1599.2215    20.151298    20.019509    20.777833    8382.1745    972.96393    2334.3497     1490.351    43.498066    1113.6243    423.91688   -4414.6859 
19214000     163.8964   -4932.2672   -4616.1792   -4932.2672            0    3571.0703    19.975995    19.845347     21.08572    8359.0238    4112.3842    4993.6136    1607.2132   -303.73206   -245.92317    725.21145   -4180.8379 
19215000    150.37105   -4943.1636   -4653.1604   -4943.1636            0    2875.1529    20.025124    20.112884    20.725807     8347.588    2006.5184    3416.0999    3202.8402    210.06595   -26.171367   -661.92989   -4303.1364 
19216000    149.20576   -4925.1882   -4637.4324   -4925.1882            0    2420.1068    20.029358    20.025752    20.980586    8415.3748    3200.1434    1300.7978    2759.3791   -75.574859    691.74463   -988.59548   -4340.4136 
19217000    148.19817   -4931.6024   -4645.7898   -4931.6024            0    2389.8207    20.043613    20.150721    20.650967    8340.7863    2189.8359     2132.648    2846.9782    139.62179   -106.24839    -163.1869   -4355.0877 
19218000    159.99055   -4922.2351   -4613.6799   -4922.2351            0    1612.5184     19.94497    19.914727    21.085686    8375.2058    3361.1924      713.833    762.52983    605.20036   -732.01173   -122.39212   -4416.7208 
19219000    161.90085   -4931.1028   -4618.8634   -4931.1028            0    2768.0699    20.029793     20.11638    20.705241    8342.6993    2203.1137    3398.9859    2702.1101   -602.98389   -200.84481      305.958   -4282.0731 
19220000     149.8497   -4928.1517    -4639.154   -4928.1517            0    2197.2385    20.047595    19.801201    21.015231    8342.3418    2221.6377    2665.0883    1704.9894    180.53536    1116.7645   -191.14334   -4371.8281 
19221000    162.56128    -4945.525   -4632.0119    -4945.525            0    1641.5351    20.104066    20.018733    20.800458    8371.3093   -379.47136    4212.1527     1091.924    115.34794   -406.98109    274.10507   -4431.6019 
19222000     158.5668   -4942.6993   -4636.8899   -4942.6993            0    2184.6333    20.003773    19.846997    21.005328    8339.4266    1345.7822    3050.2906    2157.8272   -81.401894     184.6603    525.62455   -4371.1904 
19223000    152.20159   -4926.9798   -4633.4463   -4926.9798            0     1296.388    20.095607    19.954566    20.779735    8332.6551    1548.1573    1515.7812    825.22557    320.42672    217.51458   -1460.8539    -4475.905 
19224000    152.89437    -4916.695   -4621.8253    -4916.695            0    1744.1617    20.149455    20.048564    20.744729    8380.1989     151.2558    2324.8131    2756.4162    77.129994   -103.23666   -922.92004   -4408.6598 
19225000    156.82598   -4942.1369   -4639.6848   -4942.1369            0    1297.6664    20.003147    19.952254    21.042226    8398.1184    1847.1691    1708.6242    337.20606   -194.74032   -1212.1757    193.26883   -4480.7493 
19226000    154.79954   -4925.0354   -4626.4915   -4925.0354            0    2452.5946    20.142183     20.05994    20.721956    8372.7269     2260.007    2189.8863    2907.8906    -54.22781   -500.06801    703.84556   -4327.0109 
19227000    168.15196   -4910.3477   -4586.0525   -4910.3477            0    1035.4553    20.137474    20.034688    21.019215    8480.1603    1930.6158   -99.308531    1275.0585    72.212538    1447.2532     212.3877   -4457.9932 
19228000    161.21307   -4921.3219    -4610.409   -4921.3219            0    1103.3036    20.076638    19.950872    20.945329    8389.5769    759.04645    2101.2946    449.56977   -403.73944    32.847777   -217.15946    -4475.416 
19229000    158.97037   -4921.8672   -4615.2794   -4921.8672            0    2155.8915    20.070903    19.972294    20.811437    8342.5137    3437.0089    1800.0454    1230.6201   -492.07073   -10.452811   -1188.6238   -4352.9786 
19230000    161.14626   -4910.3455   -4599.5614   -4910.3455            0    2986.3807    20.044499    19.957331    20.856471    8343.3121    2684.0351    3418.0909     2857.016   -525.17351    1020.7623    173.67687   -4236.1826 
19231000    158.04965   -4919.8632   -4615.0512   -4919.8632            0    2363.2366    20.087316    19.994617    20.903938    8395.8197    2415.9274    2098.2513    2575.5312   -562.81447   -423.08722    1160.9311    -4325.686 
19232000    158.08632   -4926.8912   -4622.0085   -4926.8912            0    1548.7289    20.112657    19.907904    21.063494    8433.8408    931.55722    2397.6767    1316.9529    96.656011   -433.61412   -859.67579   -4431.5165 
19233000    155.00763   -4930.0204   -4631.0752   -4930.0204            0     581.2645     20.16925    20.043028    20.761156    8392.7564   -355.17127    1152.4541    946.51066   -106.98217   -372.90374   -298.47932   -4559.9286 
19234000    161.11677   -4923.9718   -4613.2445   -4923.9718            0    2027.3949    19.984645    19.879517      21.0277    8353.9916    1276.7379    2159.6536     2645.793    202.16825   -307.06373   -917.01908   -4366.2381 
19235000    153.68341   -4937.1313   -4640.7399   -4937.1313            0    1188.0848    20.106078    20.063892    20.824707    8400.8155    1830.3709     589.9403    1143.9432   -125.75513    464.41112   -611.72219    -4495.179 
19236000    148.80989   -4924.1091   -4637.1167   -4924.1091            0    1348.3159    20.162354    19.917447     20.89699    8391.8682    867.06926    2297.1615    880.71677    -32.60297    543.99919    277.61718   -4472.1006 
19237000    159.34664   -4937.3591   -4630.0457   -4937.3591            0    1722.4304     20.10932    19.973525    20.763546    8339.7612    2088.3194    504.66448    2574.3073   -435.51816   -334.97895    -267.7722   -4420.5519 
19238000    157.26835   -4923.6838   -4620.3786   -4923.6838            0     2544.916    20.089981     19.81979    20.933863    8335.4288    2736.9027    3366.3497    1531.4957    715.14566    568.45199    379.69655   -4311.0092 
19239000    159.71755   -4930.7889   -4622.7601   -4930.7889            0    1554.6861    20.063131    19.990074    20.849326    8361.9035    1506.3717    1019.4886    2138.1979   -405.95752   -15.874393   -378.76136   -4433.1665 
19240000    155.91485   -4918.7015   -4618.0066   -4918.7015            0    2142.9096    20.073466    19.962262    20.842623    8351.8848    2120.9702    1951.6226     2356.136   -89.165782   -879.29017    1276.4006   -4356.9924 
19241000    148.03769   -4924.4626   -4638.9595   -4924.4626            0    941.65444    20.114543    20.016123    20.826619    8385.1129    1861.0673    20.246553    943.64945    326.44213    301.92887    -670.3093   -4523.8062 
19242000    161.91151   -4941.6226   -4629.3626   -4941.6226            0     2093.636    20.111712    19.977446    20.997025    8436.1984     1311.333    2036.3869    2933.1882    -567.8597   -25.699313    1303.5634   -4371.7757 
19243000    157.65086   -4917.5788   -4613.5359   -4917.5788            0    1821.5519    20.090828    20.007914    20.815104     8367.163    397.18684    3355.6944    1711.7745   -590.46105   -2.0768002   -661.20157   -4391.2583 
19244000    161.28866    -4923.343   -4612.2842    -4923.343            0    2475.8453    20.013045    20.062363    20.918708    8399.0491    3001.4852    1195.4622    3230.5884   -439.23918   -586.09246   -391.20752   -4309.0142 
19245000    162.56615   -4912.2835    -4598.761   -4912.2835            0     583.3878    19.991704    20.226095    20.923368    8460.4497    2037.6555   -888.95625    601.46415   -313.80291   -845.97595    136.43617   -4526.7786 
19246000    156.90618   -4917.7078    -4615.101   -4917.7078            0    1107.4288    20.047898    20.105231    20.847607    8402.9955    1817.6865    248.19068    1256.4091   -542.28302    100.20407    114.59422   -4479.3867 
19247000    161.91983   -4944.0239   -4631.7479   -4944.0239            0    2145.1506    20.128445    19.953662    21.041977    8451.2192    1434.7692    2866.3829    2134.2996    355.00056    1066.6235    736.36135    -4367.353 
19248000    161.58641   -4925.9143   -4614.2813   -4925.9143            0    1655.2068    20.156774    20.036529     20.85581    8423.0732   -103.03629    2283.0883    2785.5685   -173.07966    1532.7568   -68.699769   -4410.9526 
19249000    154.76729   -4937.3807    -4638.899   -4937.3807            0    1337.0001    20.236839    19.884933    20.988839    8446.0807    1995.9884    2333.5684   -318.55662    155.58654   -512.25693    608.82372   -4474.2108 
19250000    169.59832   -4926.2231   -4599.1385   -4926.2231            0    2741.6861    20.156665    20.020095    20.791687    8390.2432    1876.9113    3243.9911    3104.1558   -293.59831    737.35781   -517.80393   -4263.6573 
Loop time of 384.028 on 64 procs for 250000 steps with 972 atoms

Performance: 112.492 ns/day, 0.213 hours/ns, 650.995 timesteps/s
195.6% CPU use with 32 MPI tasks x 2 OpenMP threads

MPI task timing breakdown:
Section |  min time  |  avg time  |  max time  |%varavg| %total
---------------------------------------------------------------
Pair    | 25.379     | 35.062     | 45.872     |  76.9 |  9.13
Bond    | 0.98358    | 1.2444     | 1.8408     |  16.5 |  0.32
Kspace  | 165.97     | 179.27     | 188.32     |  36.9 | 46.68
Neigh   | 1.0927     | 1.1804     | 1.2744     |   5.7 |  0.31
Comm    | 69.414     | 75.066     | 79.717     |  32.9 | 19.55
Output  | 0.52083    | 0.52118    | 0.52271    |   0.0 |  0.14
Modify  | 73.827     | 76.623     | 82.671     |  19.7 | 19.95
Other   |            | 15.07      |            |       |  3.92

Nlocal:        30.3750 ave          35 max          22 min
Histogram: 1 1 1 4 2 2 8 4 3 6
Nghost:        2586.59 ave        2612 max        2560 min
Histogram: 1 0 3 4 9 4 5 5 0 1
Neighs:        9400.47 ave       11912 max        6797 min
Histogram: 3 1 2 3 8 5 2 2 3 3

Total # of neighbors = 300815
Ave neighs/atom = 309.48045
Ave special neighs/atom = 2.0000000
Neighbor list builds = 3649
Dangerous builds = 0

unfix		3
unfix		2
unfix		1

write_data	data.final.${pid}
write_data	data.final.1
System init for write_data ...
PPPM initialization ...
  extracting TIP4P info from pair style
  using 12-bit tables for long-range coulomb (../kspace.cpp:340)
  G vector (1/distance) = 0.37214908
  grid = 24 24 25
  stencil order = 5
  estimated absolute RMS force accuracy = 0.0034401551
  estimated relative force accuracy = 1.0359925e-05
  using double precision FFTW3
  3d grid and FFT values/proc = 3458 576
Last active /omp style is kspace_style pppm/tip4p/omp
WARNING: Not all mixed pair coeffs generated from mixing. Use write_data with 'pair ij' option to store all pair coeffs. (../write_data.cpp:312)

write_restart   restart.lmp.${pid}
write_restart   restart.lmp.1
System init for write_restart ...
PPPM initialization ...
  extracting TIP4P info from pair style
  using 12-bit tables for long-range coulomb (../kspace.cpp:340)
  G vector (1/distance) = 0.37214908
  grid = 24 24 25
  stencil order = 5
  estimated absolute RMS force accuracy = 0.0034401551
  estimated relative force accuracy = 1.0359925e-05
  using double precision FFTW3
  3d grid and FFT values/proc = 3458 576
Last active /omp style is kspace_style pppm/tip4p/omp
Total wall time: 0:06:24
