#include		in.partitions
include		in.temp
variable        temperature equal 20.22
variable	tempDamp equal 100.0
include		in.pressure
variable        pressure equal 2190.6
variable        pressureDamp equal 1000.0 # This is 1 ps
include		in.seed
variable        seed equal 745823

units		real
atom_style	full

read_restart	restart.lmp.${pid}
read_restart	restart.lmp.1
Reading restart file ...
  restart file = 30 Jul 2021, LAMMPS = 30 Jul 2021
  restoring atom style full from restart
  orthogonal box = (0.061078102 0.063161401 0.012750212) to (19.938923 19.936840 20.687248)
  4 by 2 by 4 MPI processor grid
  restoring pair style lj/cut/tip4p/long/omp from restart
  restoring bond style harmonic/omp from restart
  restoring angle style harmonic/omp from restart
  972 atoms
  648 bonds
  324 angles
Finding 1-2 1-3 1-4 neighbors ...
  special bond factors lj:    0        0        0       
  special bond factors coul:  0        0        0       
     2 = max # of 1-2 neighbors
     1 = max # of 1-3 neighbors
     1 = max # of 1-4 neighbors
     2 = max # of special neighbors
  special bonds CPU = 0.002 seconds
  read_restart CPU = 0.009 seconds
include 	in.setup
variable	out_freq equal 1000
variable	out_freq2 equal 10000
variable	out_freq3 equal 1000

timestep	2.0

neigh_modify    delay 7 every 1

include		in.tip4p
# This is TIP4P/Ice

# create groups ###
group ox type 2
324 atoms in group ox
group hy type 1
648 atoms in group hy

# set charges - beside manually ###
set group ox charge -1.1794
Setting atom values ...
  324 settings made for charge
set group hy charge 0.5897
Setting atom values ...
  648 settings made for charge

# ### TIP3P Potential Parameters ###
pair_style lj/cut/tip4p/long/omp 2 1 1 1 0.1577 8.5
pair_coeff 1 1*2 0.000 0.000
pair_coeff 2 2 0.21084 3.1668
bond_style  harmonic
bond_coeff  1 450 0.9572
angle_style harmonic
angle_coeff 1 55 104.52
kspace_style pppm/tip4p/omp 1.0e-5
pair_modify tail yes

thermo          ${out_freq}
thermo          1000
thermo_style    custom step temp pe etotal epair emol press lx ly lz vol pxx pyy pzz pxy pxz pyz enthalpy

restart 	${out_freq3} restart.lmp.${pid} restart2.lmp.${pid}
restart 	1000 restart.lmp.${pid} restart2.lmp.${pid}
restart 	1000 restart.lmp.1 restart2.lmp.${pid}
restart 	1000 restart.lmp.1 restart2.lmp.1


include         in.dump
dump            myDump all atom ${out_freq2} dump.water.${pid}
dump            myDump all atom 10000 dump.water.${pid}
dump            myDump all atom 10000 dump.water.1
dump            myDump2 all dcd ${out_freq2} dump.dcd
dump            myDump2 all dcd 10000 dump.dcd
dump_modify     myDump append yes
dump_modify     myDump2 append yes


variable natoms 	equal  "count(all)"                        # NUMBER ATOMS
variable H      	equal  "enthalpy/v_natoms"                 # ENTHALPY-per-atom
variable Vol      	equal  "vol/v_natoms"                 # volume-per-atom
fix AVG all 		ave/time ${out_freq} 1 ${out_freq} v_Vol v_H file vol_enthalpy.dat
fix AVG all 		ave/time 1000 1 ${out_freq} v_Vol v_H file vol_enthalpy.dat
fix AVG all 		ave/time 1000 1 1000 v_Vol v_H file vol_enthalpy.dat


timer           timeout 02:55:00 every 1000
New timer settings: style=normal  mode=nosync  timeout=02:55:00

fix 		1 all shake 1e-6 200 0 b 1 a 1
       0 = # of size 2 clusters
       0 = # of size 3 clusters
       0 = # of size 4 clusters
     324 = # of frozen angles
  find clusters CPU = 0.001 seconds
fix             2 all nph aniso ${pressure} ${pressure} ${pressureDamp}
fix             2 all nph aniso 2190.6 ${pressure} ${pressureDamp}
fix             2 all nph aniso 2190.6 2190.6 ${pressureDamp}
fix             2 all nph aniso 2190.6 2190.6 1000
fix             3 all temp/csvr ${temperature} ${temperature} ${tempDamp} ${seed}
fix             3 all temp/csvr 20.22 ${temperature} ${tempDamp} ${seed}
fix             3 all temp/csvr 20.22 20.22 ${tempDamp} ${seed}
fix             3 all temp/csvr 20.22 20.22 100 ${seed}
fix             3 all temp/csvr 20.22 20.22 100 745823


run             250000
PPPM initialization ...
  extracting TIP4P info from pair style
  using 12-bit tables for long-range coulomb (../kspace.cpp:340)
  G vector (1/distance) = 0.37169193
  grid = 24 24 24
  stencil order = 5
  estimated absolute RMS force accuracy = 0.0035738058
  estimated relative force accuracy = 1.076241e-05
  using double precision FFTW3
  3d grid and FFT values/proc = 3211 432
Last active /omp style is kspace_style pppm/tip4p/omp
Neighbor list info ...
  update every 1 steps, delay 7 steps, check yes
  max neighbors/atom: 2000, page size: 100000
  master list distance cutoff = 10.8154
  ghost atom cutoff = 10.8154
  binsize = 5.4077, bins = 4 4 4
  1 neighbor lists, perpetual/occasional/extra = 1 0 0
  (1) pair lj/cut/tip4p/long/omp, perpetual
      attributes: half, newton on, omp
      pair build: half/bin/newton/omp
      stencil: half/bin/3d
      bin: standard
Per MPI rank memory allocation (min/avg/max) = 10.18 | 10.19 | 10.19 Mbytes
Step Temp PotEng TotEng E_pair E_mol Press Lx Ly Lz Volume Pxx Pyy Pzz Pxy Pxz Pyz Enthalpy 
46750000    21.285253   -5211.9248   -5170.8744   -5211.9248            0    1983.0059    19.877845    19.873678    20.674498    8167.3753    1947.9724    2015.4467    1985.5987   -413.10186    249.62531    370.80956   -4934.6731 
46751000    20.252719   -5214.4656   -5175.4066   -5214.4656            0    2068.7378    19.949739    19.827288    20.638839    8163.6768    1659.2893    2499.6791    2047.2449   -282.65748    137.90891    410.35324    -4929.105 
46752000    19.484043     -5211.49   -5173.9134     -5211.49            0    2315.3883    19.871291    19.844616     20.65236    8144.0131    2371.5314    2337.2305     2237.403   -259.70329   -122.43936   -126.18711   -4898.9099 
46753000     20.91581   -5215.9328   -5175.5949   -5215.9328            0    1934.7562    19.927965    19.820078    20.681826    8168.7798    2096.5894    2225.1086    1482.5706    -231.6211    118.15275    135.18401   -4945.1011 
46754000    20.012243   -5215.6252   -5177.0299   -5215.6252            0    1977.8576    19.904399    19.845687    20.653172    8158.3432    2181.8813    1855.2211    1896.4703    54.147478   -159.55973    73.553413   -4941.7023 
46755000    19.950357   -5212.5638   -5174.0878   -5212.5638            0    2307.5959    19.883488    19.876115    20.618802    8148.6847    2569.0937    2111.4894    2242.2047    -30.98637    578.80306    234.66192   -4899.8527 
46756000    20.106496   -5211.4028   -5172.6258   -5211.4028            0     2053.598    19.969256    19.884386    20.557596     8162.936    1733.2577    1834.5688    2592.9676   -49.567854   -193.29788   -161.45752   -4928.1489 
46757000    21.229034   -5215.2403   -5174.2983   -5215.2403            0    2109.4302    19.873731     19.86689    20.625709    8143.6326    2083.2001    1925.8329    2319.2576   -73.661637    -24.01882    602.18868   -4923.7686 
46758000     20.78948   -5213.1648   -5173.0705   -5213.1648            0    2635.6269    19.850236    19.872849    20.567214    8113.3699    3037.9899    2411.7123    2457.1785   -88.544041    315.39557   -234.78591   -4861.2095 
46759000    20.787709   -5211.0996   -5171.0088   -5211.0996            0    2410.1125    19.905455    19.865645    20.607127    8148.7732    2042.2087    2502.3464    2685.7825    11.617105   -44.674433    329.71285   -4884.5874 
46760000      19.8701   -5210.1821    -5171.861   -5210.1821            0     1899.685    19.920579    19.845295    20.633969    8157.2223    1526.0243    2041.0126    2132.0182   -160.52222   -185.92885    -188.2887   -4945.8655 
46761000    19.947506   -5212.6699   -5174.1995   -5212.6699            0    2071.9827    19.908491    19.886769    20.631429    8168.3038    2278.5757     1658.097    2279.2754   -108.80588    176.44837    196.03026   -4927.3718 
46762000    21.283723   -5211.6074     -5170.56   -5211.6074            0    2196.6995    19.847827     19.88763    20.609679    8135.1811    2134.6576    1889.5976    2565.8432   -219.37598   -121.81687   -389.68315   -4909.9363 
46763000    20.829572   -5212.9106    -5172.739   -5212.9106            0    1409.4411    19.928871    19.943558    20.599251    8187.2256    1028.2185    1254.2147      1945.89   -153.60515     169.9155    557.16386   -5004.4486 
46764000     20.30445   -5213.6765   -5174.5177   -5213.6765            0    2187.8423    19.845431    19.850346    20.669275    8142.4268    2756.2288    1784.0138    2023.2842    63.601852    181.34006    51.680805   -4914.7137 
46765000    20.780527   -5213.7505   -5173.6735   -5213.7505            0    2507.9435    19.872385    19.822422    20.643093    8131.7021    2858.4947    2541.6741    2123.6618    -287.7311     396.7906    160.75668   -4876.2501 
46766000    20.158107   -5212.9732   -5174.0966   -5212.9732            0    2059.9698    19.875546    19.871314    20.679407    8167.3985    2213.1882    1908.6421    2058.0792   -217.28652    293.79396   -232.69232   -4928.7272 
46767000    20.625304   -5214.0858   -5174.3082   -5214.0858            0     2058.399    19.943676     19.86325     20.60054    8160.8262    1857.3844    1891.2367     2426.576    214.83923   -409.68485    149.03355   -4929.3231 
46768000    19.071209   -5212.2787   -5175.4983   -5212.2787            0    2352.1428    19.869816    19.908065    20.607596    8151.7386    2290.7288    2331.2464    2434.4531   -95.757589    301.35723    595.99563   -4895.8644 
46769000    20.177992   -5214.6238   -5175.7089   -5214.6238            0    1993.2682    19.935964     19.84218    20.633635     8162.109    2012.6226    2112.4512    1854.7308   -31.806405    202.39338    10.105039   -4938.4382 
46770000    19.335681   -5211.5944   -5174.3039   -5211.5944            0    2152.1872    19.850981    19.889844    20.661649     8157.899    2443.9217    2121.3577    1891.2823   -197.13909    166.98194    191.34049   -4918.2483 
46771000    19.093558    -5212.972   -5176.1484    -5212.972            0    2543.7165    19.896982     19.83702    20.607787    8133.8286    2493.6088    2637.1233    2500.4175   -179.67292    517.87037    409.26521   -4874.4037 
46772000    20.063423   -5212.6024   -5173.9084   -5212.6024            0    2245.5762    19.903979    19.849441    20.639049    8154.1348    2137.9657    2581.9558     2016.807   -130.89803    292.62444   -127.30068   -4906.8652 
46773000    19.358218   -5212.4972   -5175.1632   -5212.4972            0    1858.2435    19.919893    19.844637    20.588658    8138.7592     2251.978     1147.203    2175.5495   -131.85315    32.072215   -109.95819   -4954.5982 
46774000    21.006768   -5210.7511   -5170.2378   -5210.7511            0    2078.9894    19.914292    19.889165    20.572057    8148.1523    2338.6679    1692.9889    2205.3113   -96.200276    448.26817    223.38447   -4923.1864 
46775000    20.534366    -5210.345   -5170.7428    -5210.345            0     2270.663    19.856366    19.903186    20.619001     8148.731     3145.315    1347.5727    2319.1012   -158.94947    127.99959   -20.880848   -4900.8952 
46776000    21.067744   -5212.0648   -5171.4338   -5212.0648            0    2398.0449    19.868252    19.863551    20.619343    8137.5072    2496.3469    2310.7115    2387.0762   -120.04751    374.83324   -272.36462   -4886.8406 
46777000    21.828106   -5214.2402   -5172.1429   -5214.2402            0     2075.216      19.9054    19.877884     20.61095    8155.2836    2320.2946     1673.358    2231.9955    154.73739    754.19383    355.11491   -4925.3241 
46778000    19.752607     -5213.79   -5175.6954     -5213.79            0    1835.2981    19.888599    19.888239     20.65239    8169.0364    1664.3413     1895.136    1946.4171   -167.02795    217.22219    15.590143   -4957.0435 
46779000    20.640284   -5213.4045    -5173.598   -5213.4045            0    1920.6254     19.83798    19.911315    20.667525    8163.6784    2404.1248    1876.8028    1480.9485   -274.94907    525.82561   -296.23064   -4944.9305 
46780000    20.043141   -5210.3545   -5171.6997   -5210.3545            0     2241.417    19.871426    19.812757    20.680526     8142.083    2650.9393    2324.8602    1748.4514   -20.848651     118.8973    112.93236    -4905.545 
46781000    20.914134   -5212.4704   -5172.1357   -5212.4704            0     2305.553    19.898373     19.82488    20.686772    8160.5769       1601.5    2990.7707    2324.3885    77.872099    34.076834    350.99822   -4897.7435 
46782000    21.628569    -5213.358   -5171.6455    -5213.358            0    2137.0048    19.907928     19.89912    20.603342    8162.0189    2023.5473    2229.3844    2158.0827   -23.813196    658.65761    153.60971   -4917.2678 
46783000    20.037119    -5211.313   -5172.6698    -5211.313            0    1994.5427    19.862924    19.856373     20.67829    8155.6337    2393.6402    1843.5377      1746.45   -276.34975    364.83339     94.78382   -4935.4358 
46784000    20.089948   -5213.2529   -5174.5077   -5213.2529            0    2329.3618    19.901733     19.84825     20.62817    8148.4278     1848.393     2660.785    2478.9073   -219.12368    138.53129    203.44555   -4897.6946 
46785000    18.777578   -5214.0529   -5177.8387   -5214.0529            0    1970.5247    19.922322     19.87966    20.560914    8143.1291    1624.0011    2124.4572    2163.1159   -140.24592     483.3792   -94.114372   -4943.8208 
46786000     19.68482   -5212.2633   -5174.2995   -5212.2633            0    2417.8299    19.913412    19.875157    20.574312    8142.9461    2003.2277    2617.7226    2632.5396   -152.28786    557.75638   -35.269069   -4887.1664 
46787000    19.936279   -5212.6779   -5174.2291   -5212.6779            0    2463.5622     19.86933     19.90833    20.585439    8142.8828    2062.1551    2647.2669    2681.2648   -265.94033    154.38224   -110.85908   -4881.6673 
46788000    20.362337   -5212.8833   -5173.6129   -5212.8833            0    2218.4803    19.923612    19.858727    20.623244    8159.7428    2351.6559    2283.5771    2020.2081   -7.1036128    15.329858    337.34716   -4909.6104 
46789000    19.899097   -5213.5868   -5175.2097   -5213.5868            0    1797.3993    19.907906    19.834845    20.682483     8166.897    2167.7471    1859.4486    1365.0022   -46.406901    164.42548    394.35907    -4961.129 
46790000    20.651938   -5213.7665   -5173.9375   -5213.7665            0    2464.5783    19.875358    19.862848    20.637471    8147.2858    2401.0545    2599.8738    2392.8065   -64.352968    238.34508    154.06435   -4881.0968 
46791000    20.682295   -5214.3458   -5174.4583   -5214.3458            0    1812.8507    19.904832    19.866828     20.67442    8175.6142    1686.5412    2090.1467    1661.8643    -71.11471    252.72414    174.73992   -4958.3067 
46792000    20.259011   -5214.3663   -5175.2951   -5214.3663            0    1882.7397    19.894491     19.87421    20.617204    8151.7806    2265.9699    1487.7733    1894.4759   -8.3357085    268.04723    608.69328   -4951.4649 
46793000    20.564239   -5211.7549   -5172.0951   -5211.7549            0    2244.9989    19.854335    19.914285    20.603144    8146.1721    2527.6783    1914.7727    2292.5456   -342.85768    414.69152      75.8407   -4905.3812 
46794000    19.684063   -5213.3967   -5175.4343   -5213.3967            0    2367.3868    19.874408    19.785825    20.696339    8138.4538    2560.9567    2490.3838    2050.8199    -175.3907    168.52532   -213.95949   -4894.4468 
46795000    19.100069   -5214.6766   -5177.8406   -5214.6766            0    1762.3952    19.893873    19.905177    20.661532    8181.7822    1613.3364    1997.8466    1676.0027    88.288165     225.4081   -57.399308   -4967.5464 
46796000    20.232599   -5213.3512   -5174.3309   -5213.3512            0     2203.606    19.822918    19.895139    20.657047    8146.7199    2384.4875    2359.6127    1866.7178   -119.74042    137.43323    498.98127   -4912.5171 
46797000    20.837628   -5215.0812    -5174.894   -5215.0812            0    1735.7078    19.884138    19.860849    20.627525     8146.137    1677.7386    1910.4367    1618.9481   -197.44306    498.41479    63.518982   -4968.6866 
46798000    19.368101   -5211.4572   -5174.1042   -5211.4572            0    2805.7203    19.805876    19.903123    20.636794    8134.9989    3384.3115    2304.0695    2728.7799    24.498864   -86.026147   -181.91263   -4841.2318 
46799000    20.456589   -5211.5732    -5172.121   -5211.5732            0    2379.1874      19.8743    19.869282    20.633086    8147.7592    2496.0503    2110.9444    2530.5674   -88.759428    502.95595    262.20708     -4889.41 
46800000    19.711243   -5213.0256   -5175.0108   -5213.0256            0    2545.1509    19.887625    19.872295     20.60604    8143.7698    2744.4186    2440.5567    2450.4773   -216.22354    167.26923   -253.81563    -4872.727 
46801000    21.606121   -5210.4193     -5168.75   -5210.4193            0    1828.1353    19.851779    19.880373    20.645634    8148.0217    1931.5291    1580.0937     1972.783     136.6464    311.42674   -293.91949   -4951.5117 
46802000    19.339232   -5211.9897   -5174.6924   -5211.9897            0    2216.1693     19.91413    19.870759      20.5978    8150.7323    1815.6735    2135.1623    2697.6722    11.366417    243.32278    273.90549   -4911.2562 
46803000    19.371868   -5213.4282    -5176.068   -5213.4282            0    2296.2663    19.862631    19.884869    20.625241    8146.2651    2310.2318    2256.2814    2322.2858   -158.73796    287.00364    219.91628   -4903.2602 
46804000    20.742151   -5211.7182   -5171.7152   -5211.7182            0    2441.5754    19.907349     19.79464    20.630867    8129.7748    2823.7644    2478.4899    2022.4719    83.744418    176.37022    6.2989593   -4882.2312 
46805000    20.271793    -5213.014   -5173.9181    -5213.014            0    2163.2536    19.931856    19.864384    20.570765    8144.6662    1667.1277    2106.8196    2715.8134   -68.820002    246.44328    147.66659   -4916.9634 
46806000    20.880387   -5210.2358   -5169.9663   -5210.2358            0    2072.7873    19.893275    19.865469    20.630278    8152.8638    2296.8825    1981.0511    1940.4282   -165.87882   -50.530134     223.1458   -4923.5095 
46807000    20.050927   -5214.3274   -5175.6575   -5214.3274            0    2335.4603    19.834479    19.849338    20.674499    8139.5763    2124.3958    2336.5037    2545.4813   -251.25899   -86.779364   -77.406102   -4898.4212 
46808000    20.617648   -5213.2735   -5173.5106   -5213.2735            0    2158.4193    19.908361    19.862035    20.580289    8137.8694    2375.7146    1937.6306    2161.9128   -99.575968    587.86355    257.61247    -4917.344 
46809000    20.276593   -5213.4023   -5174.2972   -5213.4023            0    2658.9937    19.843521    19.855611    20.662135    8140.9896    3022.9648    2599.5337    2354.4825     1.798099     356.4256   -275.61116   -4858.6002 
46810000     20.21605   -5213.6297   -5174.6413   -5213.6297            0    1961.4977    19.876914    19.882863    20.634399    8154.9201    1908.4729    2140.0528    1835.9675     16.72216    141.87226   -432.58197   -4941.3582 
46811000    20.664535   -5213.2018   -5173.3485   -5213.2018            0     1858.476    19.846006    19.840601    20.716398      8157.22    2307.4331    1925.4142    1342.5808   -201.47235    207.12516    304.65391   -4952.2555 
46812000    21.104937   -5209.9472   -5169.2446   -5209.9472            0    2563.8316    19.836975    19.867807    20.654315    8140.2204    2731.9624    2276.8083    2682.7242   -4.4453238    423.93576    112.47653   -4864.8748 
46813000    20.572499   -5212.1666   -5172.4908   -5212.1666            0    2289.5505    19.883106    19.871554    20.624109    8148.7548    2427.5498    2244.9694    2196.1324   -99.895275    555.10497    103.34593   -4900.3978 
46814000    20.171945   -5212.6836   -5173.7803   -5212.6836            0    2302.0905     19.88545    19.886471    20.588091    8141.5902    2598.4617    2140.7249    2167.0851    63.669436    283.92314    200.44524   -4900.4376 
46815000    20.672301   -5214.5591   -5174.6908   -5214.5591            0    2619.6483     19.89346    19.887051     20.56716    8136.8261    2986.5199    2238.1302    2634.2949   -102.05804     252.0027    277.70829   -4863.8243 
46816000    20.853469   -5211.2552   -5171.0376   -5211.2552            0    2410.7117    19.863616    19.931686     20.54788    8135.2215    2363.6154    2329.8052    2538.7144   -76.167688    253.25909    220.45193   -4885.0214 
46817000    20.049866   -5213.7687   -5175.1009   -5213.7687            0    2121.5676    19.881108    19.854452    20.659343    8154.8314    2433.4752    1888.9538    2042.2738   -36.504564    543.25795   -106.84998   -4922.7832 
46818000     20.05712   -5213.1638   -5174.4819   -5213.1638            0    2153.2925    19.924109    19.858974    20.583707    8144.4038    2048.1407    1995.2982    2416.4386   -187.68231    352.76791    50.982928   -4918.7186 
46819000    19.287984    -5213.763   -5176.5645    -5213.763            0    1957.5848    19.972286    19.841279    20.539263    8139.2107    1852.7993    2029.9714    1989.9837    -75.27899    561.75876    282.61366   -4944.1952 
46820000    20.684006   -5212.4018   -5172.5109   -5212.4018            0    2056.4496    19.951355    19.818033    20.605066    8147.1733    1325.2934    2403.4454      2440.61   -97.235056    583.46914    458.28145   -4928.1673 
46821000    20.335157   -5213.4793   -5174.2613   -5213.4793            0    2029.7854    19.883009    19.907027    20.609134    8157.3344    1940.5984    1976.7851    2171.9727   -168.97254    30.393421   -249.02087   -4932.7851 
46822000    21.552383   -5210.5583   -5168.9927   -5210.5583            0    2247.3053    19.919423    19.854826    20.661751    8171.6538    2140.4033    2279.4174    2322.0951   -365.37347    385.30641    -4.490643   -4901.1697 
46823000    19.422363   -5213.2579   -5175.8002   -5213.2579            0    2140.6802    19.824008    19.923486    20.620029    8144.1557    2740.1588    1649.8803    2032.0017   -68.988704    663.98938   -210.99601   -4921.5428 
46824000    20.562466   -5214.5934   -5174.9369   -5214.5934            0    2670.8486    19.917876    19.808936    20.614189    8133.3683    2434.2887    2805.9507    2772.3063   -47.938269    83.376632   -144.96239   -4858.1293 
46825000    20.632365   -5214.7943    -5175.003   -5214.7943            0    1893.0284     19.92868    19.846851    20.656928    8170.2601    1631.6113    2349.2358    1698.2382    22.945625     165.1624    54.706875   -4949.4395 
46826000    20.475364   -5213.3822   -5173.8937   -5213.3822            0    2374.6579     19.89363    19.847332    20.630078    8145.4867    2576.0882    2491.5222    2056.3635   -280.19005    382.39577   -76.787478   -4891.7996 
46827000    18.873397   -5213.8283   -5177.4293   -5213.8283            0    2250.6884    19.886788    19.867145    20.627323    8149.7253    2240.2447    1929.4005      2582.42   -131.19812    406.62866    362.98529   -4909.9229 
46828000    21.818397   -5212.9063   -5170.8277   -5212.9063            0    1879.2926    19.956159    19.851406    20.610411     8164.975    1098.0479    2841.0188    1698.8111   -51.523096    -29.08807    278.78647   -4947.0457 
46829000    19.762342   -5212.6926   -5174.5792   -5212.6926            0    2439.8717    19.836993    19.849091    20.673514    8140.1193    2772.8337     2594.129    1952.6524   -31.805578     292.8014   -216.37903   -4884.9291 
46830000     20.50432   -5211.2635   -5171.7192   -5211.2635            0    2584.0372    19.897481    19.904259    20.533773    8132.2902    2213.9539    2799.8526    2738.3051   -325.57955    55.763006    351.72867   -4865.2495 
46831000    20.758552   -5213.2438   -5173.2092   -5213.2438            0    2070.2476    19.891071    19.897753    20.592348    8150.1963    2060.1337     2000.405     2150.204   -66.213337    509.91218   -368.81795   -4927.1349 
46832000    20.400227   -5214.3749   -5175.0313   -5214.3749            0    2522.4664    19.872745    19.876004    20.592123    8133.6985     2958.615    2007.9609    2600.8233    -119.6693    305.75771    -193.1055   -4875.8122 
46833000    20.328646   -5211.9516   -5172.7461   -5211.9516            0    2015.9059    19.945105    19.883999    20.573899    8159.3708    1620.3725    2131.0738    2296.2713   -130.70665    313.86053   -365.07323   -4932.8612 
46834000    21.208588   -5210.8825     -5169.98   -5210.8825            0    2345.8988    19.890024    19.879547    20.574931    8135.4239    2336.7382    2378.4321    2322.5262    3.4164777    365.62055    484.53963   -4891.6466 
46835000    19.845129   -5213.9962   -5175.7232   -5213.9962            0    1787.8078    19.894002    19.925282    20.591268    8162.2466    1535.3136    1999.1947    1828.9151   -160.08807    438.54089    42.790152   -4962.9061 
46836000    19.767836   -5213.2726   -5175.1487   -5213.2726            0    2179.3337    19.836802    19.883551      20.6864    8159.2552    2061.9017    2690.5611    1785.5384    40.842779    334.24222   -183.62219   -4915.8203 
46837000    19.629132   -5212.6356   -5174.7792   -5212.6356            0    2247.5958    19.893204    19.865648    20.581031    8133.4463    2060.9376     2364.275    2317.5749   -294.29316    305.75978   -29.965615   -4908.1739 
46838000    19.552823   -5212.1914   -5174.4821   -5212.1914            0    2380.7677    19.905194    19.873819    20.563926    8134.9293    2374.9633    2325.8588     2441.481   -13.179683    399.20969    31.455708   -4892.0288 
46839000    20.256405   -5217.4819   -5178.4157   -5217.4819            0    2208.7358     19.81138    19.846175    20.738067    8153.7951    2370.4283     2246.516     2009.263   -176.93751   -51.472207    326.50764   -4915.7645 
46840000    19.735577    -5212.902   -5174.8403    -5212.902            0    2783.4712    19.863798    19.858033    20.672884    8154.5421    2988.6048     2631.244    2730.5647   -114.60627   -137.67044    1.8675225   -4843.8142 
46841000    19.141585   -5210.8672    -5173.951   -5210.8672            0    2200.5475    19.813413    19.924985    20.625332    8142.5093    2525.9835    2018.6775    2056.9814    8.2643098    536.85129    83.686553   -4912.6357 
46842000     20.49439   -5214.4801   -5174.9549   -5214.4801            0    1910.6257    19.887209    19.853457    20.663378    8158.5183    1387.7583    2420.3146    1923.8044   -108.17211    5.8509735   -160.60196   -4947.6218 
46843000     20.72407   -5212.1413   -5172.1731   -5212.1413            0    2293.0934    19.911457    19.887444    20.619774    8165.1829    2094.7929    2363.8745    2420.6128   -138.08575   -88.362927    17.752534   -4899.1097 
46844000    20.034159    -5212.883   -5174.2454    -5212.883            0    2173.5044    19.829718    19.839412    20.738548     8158.751    1896.0842    2750.1607    1874.2682   -116.04502     399.2074   -139.52075   -4915.6266 
46845000    20.373046   -5216.5881   -5177.2969   -5216.5881            0    1924.7917    19.840613    19.906027    20.639797    8151.6416     2334.595    1299.6831    2140.0971   -70.060831     426.5696    16.724937   -4948.4713 
46846000    20.766069   -5212.7805   -5172.7314   -5212.7805            0    1869.1861    19.953919    19.855186    20.609324    8165.1824    1550.9213    2007.0058     2049.631   -60.131871   -2.9403983    347.98119   -4950.1472 
46847000     20.68206   -5214.2501    -5174.363   -5214.2501            0    1896.0973     19.90062    19.841857    20.684356    8167.5333    1903.1623    1785.9747    1999.1548     13.26326    204.50164    92.891127   -4948.5092 
46848000     20.52211   -5213.9819   -5174.4032   -5213.9819            0    1915.8754    19.875515    19.877835    20.664042    8163.9952    2378.2638    1706.8288    1662.5338   -63.996465   -97.816598    153.73395   -4946.2924 
46849000    20.727468   -5214.4688   -5174.4941   -5214.4688            0     2183.775    19.911975    19.841717    20.623786    8148.2052    2026.7726    2692.3906    1832.1617   -140.47689    124.72557    260.04711   -4914.9891 
46850000    20.372973   -5214.6197   -5175.3287   -5214.6197            0    2065.7349    19.839956     19.87912    20.710908       8168.4    2402.6821    1775.3945    2019.1281   -101.16634    300.76526   -112.35864   -4929.2424 
46851000    19.992041   -5216.4012   -5177.8449   -5216.4012            0    2169.3729    19.926204    19.798964    20.653025    8147.9943    1870.5318    2537.8866    2099.7002    82.708461    185.72989     -419.907    -4920.058 
46852000    20.244105   -5212.1551   -5173.1126   -5212.1551            0    2178.2083    19.891872    19.913157    20.579565    8151.7709     2778.677    1288.5468    2467.4011   -65.851462   -137.44638   -195.51486   -4914.1558 
46853000    19.866674   -5209.7818   -5171.4673   -5209.7818            0    2680.9807    19.836926    19.878291    20.624532     8132.752    2864.5968    2774.7117    2403.6336   -280.91681    587.16777    28.517329   -4853.4819 
46854000    20.078794   -5211.6621   -5172.9385   -5211.6621            0    2079.6599    19.911657    19.884402    20.590488    8152.4205    2348.3188    1741.4663    2149.1945   -294.12416   -133.50699    228.09001    -4925.678 
46855000    20.743132   -5209.6527   -5169.6478   -5209.6527            0    2335.8203    19.960023    19.840844    20.600975    8158.4741    2337.0254    2063.6877    2606.7479    -197.6686    228.08717    31.615901    -4891.725 
46856000    19.784051   -5214.8022    -5176.647   -5214.8022            0    1983.4682    19.925936    19.886111    20.620319    8170.7887    1277.6793    2503.5493    2169.1762   -151.99854    590.23258   -249.75628   -4940.2918 
46857000    19.980727   -5213.0266   -5174.4921   -5213.0266            0    2041.9361    19.895651    19.905058     20.61369    8163.5179    2270.1003    1767.8659    2087.8421   -202.17009     211.7094    360.02856   -4931.3863 
46858000     19.29519   -5210.4449   -5173.2325   -5210.4449            0    1931.4283    19.878158    19.914325    20.627694    8165.6811    1650.1284    2021.3367    2122.8197   -123.65928    403.76708    248.13051   -4943.2224 
46859000    20.364122    -5211.278   -5172.0041    -5211.278            0    2729.7855    19.870916    19.841679    20.640562    8138.0026    2654.0405    3269.7135    2265.6024   -139.55231    432.12705    227.40247   -4848.0211 
46860000    21.549989   -5214.0261   -5172.4652   -5214.0261            0    2207.1246    19.890879    19.871981    20.609631    8146.3929    2132.6887    2061.3734    2427.3117    35.692667    384.84807    222.49037   -4910.2438 
46861000    20.992027   -5212.9345   -5172.4496   -5212.9345            0    1729.4793    19.947246    19.866925    20.633754    8176.9593    987.48108    2171.6014    2029.3553   -238.86582    171.08137    423.62096   -4966.2048 
46862000     20.66853   -5212.9586   -5173.0976   -5212.9586            0    2050.9222    19.884701     19.85643    20.680036    8165.2882    1613.4697    2498.7089    2040.5879     -132.196    109.88885    156.84636    -4928.869 
46863000    19.190806   -5214.6394   -5177.6283   -5214.6394            0    1586.3374    19.912576    19.886039    20.672228     8185.836    1720.1151    1455.9307    1582.9664   -67.359786    361.31386   -36.817125   -4988.2482 
46864000    20.029588   -5212.7379   -5174.1091   -5212.7379            0    2371.8544    19.888954    19.857924    20.644776    8153.7232    2524.2038     2085.112    2506.2476   -82.045006   -272.46366   -33.603349   -4892.0632 
46865000    20.402366   -5214.5467    -5175.199   -5214.5467            0    2191.7783    19.889939    19.877864    20.621526    8153.1223    1679.6332    2686.1865    2209.5152   -103.07021    380.90498    390.71212   -4914.5858 
46866000    19.740179   -5214.4328   -5176.3622   -5214.4328            0    2389.6275    19.911691    19.872793    20.560205     8135.692    1669.2218    2552.1444    2947.5164    -152.4817    461.40574    279.44402   -4892.8311 
46867000    19.537493   -5214.4735   -5176.7938   -5214.4735            0    2445.6945    19.958563    19.846886    20.621217    8168.3798    2463.1862    2514.2692    2359.6282    92.646042    509.31962   -368.88516   -4885.4445 
46868000    19.971643   -5213.1789   -5174.6619   -5213.1789            0     2188.433    19.874017    19.839562    20.677423    8152.9384    2055.0233    2576.9919    1933.2837   -127.13246    121.83344    6.6954326   -4914.4523 
46869000    20.027963   -5213.7305   -5175.1048   -5213.7305            0    2478.6114     19.87318    19.837571    20.629662    8132.9475    2723.4563    2116.3927    2595.9853   -125.70544    124.37816    189.77163    -4881.115 
46870000    20.540094   -5214.0264   -5174.4131   -5214.0264            0    2158.1996    19.867005    19.915094    20.623437    8159.7303    2223.5475    1759.6416    2491.4098   -167.87949    405.85096    284.24834   -4917.5845 
46871000    19.317353   -5213.6068   -5176.3517   -5213.6068            0    2297.6052    19.876485    19.864433    20.646073    8151.7943    2263.4574    2431.8626    2197.4955   -218.93921    404.61152   -41.326439   -4903.1996 
46872000    19.961423   -5209.6165   -5171.1192   -5209.6165            0    2059.2253    19.891072     19.83957    20.706158    8171.2778     1974.836    2280.3451    1922.4946   -158.48759    624.80001    120.02478    -4925.722 
46873000    20.040702   -5211.4843   -5172.8341   -5211.4843            0    1866.5856    19.890667    19.851434    20.631025    8146.3307     2278.726    1866.2575    1454.7733   -85.002031     441.9643   -206.94132   -4951.0728 
46874000     20.57263   -5213.0274   -5173.3514   -5213.0274            0       2406.1    19.906878    19.854513     20.62757     8152.869    2295.1325    2188.0991    2735.0685    209.20613    82.476349   -33.679995   -4887.2631 
46875000    20.215516   -5212.2275   -5173.2402   -5212.2275            0    1897.2266    19.863051    19.893063      20.7024    8180.2825    2095.9389    1858.3724    1737.3686   -228.05042   -52.367592   -89.699193   -4946.8991 
46876000    19.834111   -5215.7773   -5177.5256   -5215.7773            0    1600.8065    19.872103    19.924806    20.639729    8172.2553    1697.4359    1540.0807    1564.9029   -101.01396    188.18329    4.6975051   -4986.7351 
46877000    20.710143   -5214.1211   -5174.1798   -5214.1211            0     2322.273    19.958844     19.84807    20.551227    8141.2565    2054.6572    2349.0494    2563.1124    60.853326     142.0977     547.0276    -4898.452 
46878000    20.015906   -5213.7663   -5175.1639   -5213.7663            0    1962.4491    19.866033    19.899399    20.615245    8149.6624    1808.3927    2154.9092    1924.0453   -210.29374    794.92591   -68.975272   -4941.9181 
46879000    20.715623   -5209.8031   -5169.8513   -5209.8031            0    2329.4954    19.929214    19.828607    20.592274    8137.4189    2511.0993    2273.9106    2203.4761   -21.013637    230.58046   -415.62296   -4893.3963 
46880000    19.313429    -5214.784   -5177.5364    -5214.784            0      2225.27     19.89666    19.840338    20.656075    8154.1193    2045.6341    2650.0602    1980.1157   -117.43865    13.796945    259.80412   -4912.9085 
46881000    19.341514   -5214.1287    -5176.827   -5214.1287            0    2171.9548      19.9172    19.820114    20.649045    8151.4416    2114.6192      2299.24    2102.0053   -74.367035    224.79824     48.81319   -4918.6241 
46882000    21.548144   -5212.6581   -5171.1007   -5212.6581            0    2135.2107    19.968595     19.82432    20.593466    8152.2081    1901.4219    2023.8832    2480.3268   -224.18923    512.94987   -265.87333   -4917.2421 
46883000    20.803958   -5211.4417   -5171.3195   -5211.4417            0    2472.7274    19.921716    19.879753     20.55601    8140.9774    2300.2521    2213.6479    2904.2823    -188.4355    165.83126    334.92141    -4877.738 
46884000    20.322138   -5214.9318   -5175.7389   -5214.9318            0    1693.6213    19.911673    19.907423    20.610307    8169.7218    1905.6091    1352.4783    1822.7765   -43.723751   -87.720372   -87.585051    -4973.949 
46885000    20.891037   -5215.5331    -5175.243   -5215.5331            0    2307.9073    19.885892    19.884958    20.637382     8160.643    2533.5612    2156.4763    2233.6843   -230.11449    373.97541    228.61498   -4900.5683 
46886000    20.453632   -5213.7276   -5174.2811   -5213.7276            0    2147.2628    19.850497    19.887697    20.635084    8146.3319    2541.5837    1643.3913    2256.8134   -98.892078    420.19208    217.60323   -4919.1736 
46887000    19.790391    -5213.379   -5175.2116    -5213.379            0    2089.4484    19.879242    19.852326    20.634033    8143.2044    1951.9934    2209.9848    2106.3671   -34.808743   -162.45134   -299.75528   -4927.0681 
46888000    18.814393   -5213.4895   -5177.2044   -5213.4895            0    2235.8693     19.94017    19.833508    20.673089    8175.8663     1476.202    3044.4706    2186.9353   -252.58573    177.84067    262.33194   -4910.6069 
46889000    19.490478   -5214.0719   -5176.4829   -5214.0719            0    2231.7324    19.877445    19.847534     20.62732    8137.8543    2378.9005    2174.5101    2141.7868   -179.19161    372.87952    101.20964   -4911.6158 
46890000    20.749827   -5212.4968    -5172.479   -5212.4968            0    1711.7133    19.900771    19.873834    20.679838    8178.9715    2239.0606    1631.6326    1264.4466   -89.337324     91.61878    438.38743   -4968.3026 
46891000    21.209447   -5215.4909   -5174.5867   -5215.4909            0    2469.2421    19.917458    19.841383    20.618148    8148.0844     1916.209     2860.722    2630.7952   -250.68774    153.24332    352.63889   -4881.1631 
46892000    20.212444   -5213.7924    -5174.811   -5213.7924            0     1675.637     19.93736    19.826733    20.676188    8173.1466     1304.619    2225.8546    1496.4375   -88.795037    405.10926   -13.451483   -4975.0802 
46893000    19.906009   -5213.7738   -5175.3833   -5213.7738            0     2140.879    19.876916    19.930552    20.621561    8169.3946    2694.5409    1203.6342     2524.462   -90.104912     586.6887    113.81397   -4920.3142 
46894000    20.070074   -5212.1876   -5173.4808   -5212.1876            0    2282.2204    19.912603    19.892333    20.606651    8162.4621    2361.8628    2071.5864    2413.2119   -76.969615   -58.266655   -104.51975   -4901.8027 
46895000    19.286932   -5211.5746   -5174.3781   -5211.5746            0    2195.1526    19.916777    19.816506    20.654414    8151.9031    1937.8624    2439.6304    2207.9649   -190.00239     136.9057    399.78731   -4913.4027 
46896000    19.418712   -5213.0895   -5175.6389   -5213.0895            0    2319.0876    19.913441    19.816185    20.651261     8149.162    3032.7078    1913.7361     2010.819   -6.2718985   -63.276976    157.73564   -4900.0219 
46897000    19.138169   -5214.1277   -5177.2182   -5214.1277            0    2637.4108    19.904299    19.836414    20.617758    8140.5074    2672.7039    2672.6639    2566.8647   -44.086758     403.5014    110.09859   -4864.1022 
46898000    19.163763   -5211.9334   -5174.9745   -5211.9334            0    1964.5713    19.907004    19.857949    20.621265    8151.8389    2030.6543    1881.4886    1981.5711   -377.80892    105.17082   -227.56725    -4941.414 
46899000    20.895126   -5213.3606   -5173.0625   -5213.3606            0     2265.644    19.829608    19.890242    20.650213    8144.7681    2455.9715    2189.8432    2151.1173    14.179062    192.27099   -173.37832   -4903.9424 
46900000    19.243832   -5211.7062   -5174.5928   -5211.7062            0    2565.8937    19.878421    19.864107    20.646557     8152.646    2739.4423    2452.8775    2505.3613   -67.595248    8.5616716    149.43328   -4869.5132 
46901000    20.406752   -5210.1816   -5170.8255   -5210.1816            0    1920.0298    19.884012    19.893021     20.62253    8157.3049    1487.3938    2293.9464    1978.7493   -126.73566     441.0608     298.6235   -4942.4074 
46902000    20.172622   -5211.9502   -5173.0456   -5211.9502            0    2019.1499    19.899851    19.867704    20.643166    8161.5718    1800.0517    2059.5595    2197.8385   -157.25638   -247.18225     187.6623   -4932.7099 
46903000    20.372744   -5213.2473   -5173.9568   -5213.2473            0    2018.5536    19.875128    19.929159    20.581547    8152.2391     2048.645    1606.0169     2400.999    8.8775474    377.18632    532.53075   -4933.9668 
46904000    20.924894   -5216.0025   -5175.6471   -5216.0025            0    2234.2057    19.853599     19.88944    20.698455    8173.3433    2451.5985    2289.4437    1961.5748   -42.041902    401.66903    145.93774   -4909.3301 
46905000    19.487554    -5211.617   -5174.0336    -5211.617            0    2013.8289    19.837542    19.872231    20.669592    8148.2884    2356.7306    1797.9939    1886.7621   -284.07737    629.10236    156.21649   -4934.7214 
46906000    19.501761   -5213.8826   -5176.2718   -5213.8826            0    2099.3132    19.904026    19.850516     20.64889    8158.4838     2034.443    2114.6338    2148.8629   -335.03982    7.8664371   -66.328219    -4926.489 
46907000     20.35285   -5213.3103   -5174.0582   -5213.3103            0    1920.8046    19.883742    19.916221    20.617302    8164.6374    2210.1388    2013.3528    1538.9222    30.269268     537.8185     215.0062   -4945.3425 
46908000    18.729056   -5212.1266   -5176.0061   -5212.1266            0    2103.4124    19.889422    19.867846    20.632103    8152.9808    2873.7104    1677.0878     1759.439   -62.910463    300.75252   -139.59146   -4925.9043 
46909000    19.771924    -5214.127   -5175.9952    -5214.127            0    2340.8378    19.949921    19.817788    20.620008    8152.3946    2080.2312    2755.8526    2186.4298   -113.02968    106.97524    220.51206   -4897.6829 
46910000    20.057515   -5212.8687    -5174.186   -5212.8687            0    2151.5797    19.920176    19.845426    20.621993    8152.3763    1862.8377    2209.0708    2382.8305   -255.55794    323.85563    53.107121    -4918.376 
46911000    19.195497   -5212.0111    -5174.991   -5212.0111            0    2173.4931    19.949445    19.860523    20.603897    8163.3961    2318.8876    1771.4585    2430.1331   -49.140991    382.36782   -174.90106   -4916.2263 
46912000     19.80968   -5210.8568   -5172.6522   -5210.8568            0    2588.7843     19.92901    19.846867    20.565566    8134.2657    1854.1021    3138.7068    2773.5439    -330.4964    349.51475    347.02588   -4865.5449 
46913000    20.164256   -5212.7359   -5173.8475   -5212.7359            0    2407.1135    19.933438    19.802055    20.672457    8159.8948    1956.2851    3123.2082    2141.8472   -3.2765835    292.92196   -191.86016   -4887.3921 
46914000     20.01978   -5213.4363   -5174.8265   -5213.4363            0    2363.9514    19.931555    19.858374    20.616726    8160.2705     2271.534    2426.4232    2393.8971   -201.40807    555.34455    17.597267   -4893.4946 
46915000    20.374492   -5214.3177   -5175.0237   -5214.3177            0    2304.3212    19.933181    19.853369    20.614639    8158.0538      1772.65    2644.7331    2495.5803   -4.0215456    281.22125   -214.30468   -4900.8629 
46916000    20.810124   -5213.1827   -5173.0486   -5213.1827            0    2253.2607    19.926063    19.884621    20.595796    8160.5118    2261.0951    2214.0453    2284.6416   -262.75919     120.9765    38.740681    -4904.882 
46917000    20.294939   -5214.0679   -5174.9274   -5214.0679            0     1855.383    19.870541    19.890716    20.690115    8177.5463    1900.7397    1987.9088    1677.5006    20.930331    33.655798     93.61282   -4953.6523 
46918000    21.035672   -5210.8484   -5170.2793   -5210.8484            0     2498.326    19.894115    19.835961    20.630151    8141.0474    2747.3247    2352.5473     2395.106    6.2208804    459.07565    204.50943    -4873.656 
46919000    20.188632   -5211.0718   -5172.1364   -5211.0718            0    1974.0562     19.87978    19.868765    20.626179    8147.0656    1781.5417    2413.5914    1727.0353   -32.423142    468.97995   -299.57096   -4937.5857 
46920000    20.607574   -5212.9141   -5173.1707   -5212.9141            0    1952.7323    19.882754    19.866342    20.726796    8187.0342    2028.7041    1983.9233    1845.5696   -98.956535    570.65101    56.239568   -4940.0154 
46921000    20.497773   -5211.6236   -5172.0919   -5211.6236            0    2305.1629     19.87213     19.86369    20.632898    8144.5027    2438.4203    2291.1947    2185.8738   -218.31561    340.18884     88.89392   -4898.2865 
46922000    19.489322   -5211.1512   -5173.5644   -5211.1512            0    2669.0079    19.857857    19.876573    20.623253    8140.1248     3042.652     2297.219    2667.1527    46.552017   -143.62041   -19.706607   -4856.7121 
46923000    19.527795   -5214.0322   -5176.3712   -5214.0322            0    2173.7645     19.82663    19.831094    20.753293    8159.8582    2353.5142     2679.319    1488.4604    69.115344   -79.074813    195.73825   -4917.6864 
46924000     20.08305   -5212.7051   -5173.9732   -5212.7051            0    2078.8597    19.817263    19.853782    20.721127     8152.678    2489.6186    2152.7707    1594.1898   -48.493971     285.7336    345.36324      -4926.8 
46925000    20.023279   -5213.9341   -5175.3175   -5213.9341            0    2166.0264    19.868672    19.856571     20.67518    8156.8488    2171.4243    2260.1527    2066.5022   -101.58093    200.28383    21.824057   -4917.6486 
46926000    19.399771   -5213.2448   -5175.8307   -5213.2448            0    2087.1275    19.852518    19.899189     20.63793    8152.9938    2060.8727    2322.7467    1877.7631   -99.248662    375.87225     337.1072   -4927.6649 
46927000    19.130993   -5211.2096   -5174.3139   -5211.2096            0    2236.7236    19.910619    19.875902    20.621023    8160.5945    2326.4364    2173.9014    2209.8331   -35.155136    -145.0681    258.68733   -4908.1127 
46928000    19.811004   -5212.0973   -5173.8902   -5212.0973            0    2149.2214     19.86642    19.877895    20.653557    8156.1434    2096.7604    2247.5096    2103.3941   -250.37672    137.79233   -429.45873   -4918.2425 
46929000    20.593976   -5213.2126   -5173.4954   -5213.2126            0     1797.294    19.958516    19.870923    20.612642    8174.8527    1369.7751    2073.3805    1948.7265    22.197623    273.41084    193.56455   -4959.2187 
46930000    21.029914   -5212.4093   -5171.8513   -5212.4093            0    2112.5857    19.851222    19.911335    20.646376    8160.7761    1860.1898     2408.669    2068.8982   -161.26423   -232.88418    251.68308   -4920.4187 
46931000    20.468811    -5213.393   -5173.9172    -5213.393            0    2437.5919    19.824049    19.834511     20.70898    8142.7774    3019.3856    2057.1572    2236.2329   -158.77441      351.446   -208.11269   -4884.4432 
46932000    19.819068   -5211.5971   -5173.3743   -5211.5971            0    2345.9372    19.944232    19.873024    20.561523    8149.6047    1777.1601    2795.3463    2465.3051    23.138291    427.00351   -62.670649   -4894.5512 
46933000    19.503485   -5214.5954   -5176.9813   -5214.5954            0    1936.7536    19.936299    19.840349    20.639921    8163.9789    1913.1513    1808.1111    2088.9984    110.25352    362.53285    75.903292   -4946.3851 
46934000     19.84467   -5214.7027   -5176.4306   -5214.7027            0    2007.2227    19.893131    19.887783    20.628221    8161.1485    2818.5957    1523.8237    1679.2488   -155.62147    121.62314   -412.03422    -4937.527 
46935000    20.932214   -5213.0146   -5172.6451   -5213.0146            0    2363.2954    19.941659    19.891504    20.555719    8153.8286    1858.3388    2211.0681    3020.4792    60.980415    129.16095    93.596699   -4891.6133 
46936000    20.644388   -5211.6344   -5171.8199   -5211.6344            0    2284.7667    19.881127    19.852318    20.641779    8147.0305    2437.5102    2118.6886    2298.1013   -66.537984   -138.51589    443.63326   -4900.3529 
46937000    19.619298   -5211.9521   -5174.1146   -5211.9521            0    2449.0106    19.870784    19.876226    20.606895    8138.8208     2463.674    2514.7203    2368.6375   -385.54508    122.60838   -16.106263    -4883.426 
46938000    20.814999   -5214.5743   -5174.4308   -5214.5743            0    2130.8525    19.915436     19.80345    20.709983    8167.8999    1931.9838    2902.6607    1557.9128   -360.41649    362.51895    404.94013   -4920.6027 
46939000    19.141734   -5213.4049   -5176.4884   -5213.4049            0     2388.691    19.897372    19.895406    20.627312    8165.6575    2326.2835    2529.3044    2310.4851    138.60457   -223.67933    74.651382   -4892.0246 
46940000    20.855227   -5210.2523   -5170.0313   -5210.2523            0    2662.9838    19.923016    19.814516    20.589925    8128.1804     2586.418    2518.6267    2883.9067    -135.1821    477.59064   -99.669312   -4854.3581 
46941000    19.804872   -5213.0533   -5174.8579   -5213.0533            0    1555.7146    19.949551    19.897827    20.585166    8171.3375    1148.6748    1870.4388    1648.0303   -254.50338    589.52994    165.50969   -4989.4625 
46942000    20.472359   -5212.5362   -5173.0535   -5212.5362            0    2536.8115    19.896244    19.830414    20.619774    8135.5477    2410.6681    2448.1862    2751.5802   -255.44524    34.665802    284.21535   -4872.0644 
46943000    20.348768   -5212.7875   -5173.5432   -5212.7875            0     2078.604    19.906116    19.810553    20.665681    8149.5354    1926.7777     2184.106    2124.9284   -222.29681    85.495809     105.8105   -4926.4957 
46944000    21.077356   -5213.8619   -5173.2125   -5213.8619            0    2326.3423    19.867586    19.910147    20.601472    8149.2534    1943.3095     2258.377    2777.3403   -193.67779    37.811932    113.98964   -4896.7302 
46945000    20.043873   -5212.1844   -5173.5281   -5212.1844            0    2186.2472    19.894486    19.901002    20.567563    8143.1135    2403.7545    1776.8973    2378.0899   -364.95008    459.36769     51.34889   -4913.8916 
46946000    20.715702   -5213.0823   -5173.1303   -5213.0823            0    2280.9179     19.86565    19.892233    20.611551    8145.1109    2437.1207    2067.1215    2338.5116   -151.78872    157.42663    2.9114975   -4902.1844 
46947000    19.622839   -5210.0465   -5172.2022   -5210.0465            0    2112.6861    19.847778    19.863151    20.637421    8136.0846    2184.4275    2296.6425    1856.9884    12.758293    14.051207   -272.32563   -4921.5184 
46948000    20.144256   -5212.5023   -5173.6524   -5212.5023            0     2254.487    19.892409    19.902562    20.613893    8161.2444    1984.5827    2431.8066    2347.0717   -89.903589    294.46944    181.54979   -4905.3158 
46949000    20.710071   -5212.5936   -5172.6525   -5212.5936            0    2063.6505    19.899073     19.85134    20.657426    8160.1639    2277.6703    1963.0115    1950.2698   -164.20393    603.05173    76.883813   -4927.0623 
46950000    19.790124   -5213.7904   -5175.6235   -5213.7904            0    1856.2356    19.937549    19.892359    20.593015    8167.2904    1386.7376    1824.4083    2357.5608   -114.55932    24.358894   -70.035668   -4954.5244 
46951000    20.249893   -5213.5545   -5174.5009   -5213.5545            0    2155.6695    19.930507    19.859964    20.643815    8171.2174    1804.3055    2459.0421    2203.6608   -132.22193    210.03745     364.9858   -4917.6123 
46952000    20.235903   -5212.7226   -5173.6959   -5212.7226            0     2401.451    19.918093    19.831976    20.636521    8151.7384    2075.9322     2459.675    2668.7459   -124.69507    -118.8993    318.37495      -4888.2 
46953000    19.775769   -5213.7336   -5175.5944   -5213.7336            0    1955.2697    19.855144    19.867978    20.664384    8151.7189    2602.9518     1392.729    1870.1281      4.50975    341.38083    23.100396   -4943.1432 
46954000    19.636315   -5213.0725   -5175.2023   -5213.0725            0    1765.3268    19.852075     19.88149    20.690801    8166.4282    2626.6453    1189.2438    1480.0913   -314.08514    245.09371    34.766872   -4964.9536 
46955000    19.698239   -5216.0881   -5178.0984   -5216.0881            0    2224.3895    19.862432    19.885807    20.676207    8166.6981    2467.6786    1870.2463    2335.2435    8.1918528    -182.7979   -442.63111   -4913.1671 
46956000    19.750597   -5214.0802   -5175.9895   -5214.0802            0    2081.4746    19.885314    19.847826    20.661202    8154.5683    2027.7416    2476.5976    1740.0847   -3.5480171    242.54637    255.50718    -4928.448 
46957000     20.91176   -5214.8242   -5174.4941   -5214.8242            0    2127.3437    19.890281    19.838171    20.652724    8149.2922    2434.6336    1944.4158    2002.9817    -59.21082    594.61584    256.23753   -4921.6613 
46958000    20.815696   -5213.3143   -5173.1695   -5213.3143            0    2017.3985     19.87566    19.847953    20.713997    8171.4889    1930.5249    2139.8194    1981.8513    -71.89179    74.081054    33.858185   -4932.7505 
46959000    19.933502   -5212.5392   -5174.0957   -5212.5392            0    2118.4384    19.873547    19.887716    20.661442    8166.2173    2751.3383    1705.4221    1898.5546   -281.81838     400.9047    35.043945   -4921.7984 
46960000    20.822359   -5211.8211   -5171.6634   -5211.8211            0     1805.118    19.888951    19.871889    20.638155     8156.839    2151.5135    1417.0272    1846.8135    15.772696   -79.520754   -158.17171   -4956.9281 
46961000     19.61076   -5210.9297   -5173.1087   -5210.9297            0    2709.4851    19.879527    19.883243    20.578131    8133.9068    2512.5517    2568.4198    3047.4837   -81.098941    800.44534    317.54015   -4851.6969 
46962000    20.908705   -5214.3514   -5174.0272   -5214.3514            0    2414.0423    19.864873    19.891407    20.608611     8143.292    2944.8307    2040.2454    2257.0509   -30.408871    437.34248    194.08678   -4887.3318 
46963000    20.637583   -5212.3243    -5172.523   -5212.3243            0    1960.5478    19.879641    19.929824    20.575362    8151.9119    2148.7379    1575.6489    2157.2566   -212.93561    222.96782   -121.70072   -4939.4388 
46964000    20.970586   -5214.8704   -5174.4269   -5214.8704            0    2235.0892    19.898289    19.884216    20.606957    8153.3872    2123.3322    2397.5059    2184.4297   -147.53926    291.62849    101.59275   -4908.6551 
46965000    19.321876   -5214.6131   -5177.3492   -5214.6131            0    2400.1999    19.871605     19.87627    20.569347    8124.3447    2295.6491    2447.8469    2457.1038   -45.879092     266.2788   -46.653639    -4892.961 
46966000    20.119277   -5214.5785   -5175.7768   -5214.5785            0    2263.5849    19.873537    19.864381    20.633527    8145.6113     2121.231    2708.8714    1960.6523   -165.92088    205.01807   -91.671144   -4906.8733 
46967000    19.919995   -5214.2753   -5175.8579   -5214.2753            0    2255.0946    19.837885    19.886691    20.655353    8148.7408    3023.3556    1839.2845    1902.6438   -259.82301    170.30955    281.83518   -4907.8601 
46968000    20.814762   -5213.1775   -5173.0345   -5213.1775            0    2008.7035    19.889448    19.888736    20.631336    8161.2612    2415.0279    1602.8717     2008.211   -136.82055   -30.851291    89.775165   -4933.9513 
46969000    20.517071   -5212.6354   -5173.0665   -5212.6354            0    1767.2241    19.860763    19.903063    20.656863    8165.4516    2033.9337    1555.3713    1712.3673    -52.52627   -207.28321    216.06168   -4962.6171 
46970000    20.172835   -5215.6614   -5176.7563   -5215.6614            0    2092.0841    19.931051    19.893288    20.571469    8156.4667    2079.2844    1945.8051    2251.1627   -99.661014   -183.22517   -73.910108   -4927.8952 
46971000    20.486514   -5214.3956   -5174.8856   -5214.3956            0    2202.8135    19.934033    19.834032    20.668413    8171.7171    1837.8859    2764.5917    2005.9627   -272.59012    51.964123    76.249732   -4912.3629 
46972000    20.029488   -5213.3974   -5174.7689   -5213.3974            0    2365.0592    19.885068    19.807189    20.666021    8139.6697    2225.0302    2570.0291    2300.1184   -118.52837    361.96861    63.499653   -4894.0157 
46973000    19.683789    -5213.561   -5175.5991    -5213.561            0    1900.1241    19.913187    19.846142    20.628855    8152.5219     1845.419    2113.9104    1741.0431   -199.25104   -118.84988   -165.72349   -4949.6816 
46974000    19.776135   -5212.3473   -5174.2074   -5212.3473            0    2167.8582    19.886926    19.890743    20.628537    8159.9421    2456.1707    1802.4591    2244.9449   -164.83127    555.81908    35.218536   -4916.2227 
46975000    19.147907   -5212.7361   -5175.8078   -5212.7361            0    2176.7121    19.856933    19.864507    20.671641    8153.8912    2548.6082    2215.0818    1766.4463    61.646401    152.82673    182.31209   -4916.9616 
46976000    19.944188   -5214.0687   -5175.6047   -5214.0687            0    2242.9305    19.923167    19.825851    20.658423    8159.9475     1853.851    2892.6837    1982.2569   -40.298379    26.893168    505.35519   -4908.6859 
46977000    21.269651   -5210.6105   -5169.5901   -5210.6105            0    2503.1483    19.908103    19.829784    20.674914    8161.9057    2841.9992    2599.2107    2068.2352   -136.49656     152.1034   -289.30898   -4871.6328 
46978000    20.994907   -5213.5659   -5173.0754   -5213.5659            0    2246.9543    19.845653    19.868858    20.692008    8159.0749    2498.3815    2469.2837    1773.1977   -67.148672    649.12373   -169.96853   -4905.7064 
46979000    19.963485    -5211.338   -5172.8367    -5211.338            0    2269.8247    19.995093    19.851135    20.542335    8153.7721    1739.7731    2455.8952    2613.8057   -209.29211    337.60742   -459.40974   -4902.9219 
46980000    21.280336   -5212.0224   -5170.9814   -5212.0224            0    2125.1083    19.921295    19.879263    20.590016    8154.0714    2147.8708       2201.3    2026.1539   -178.45308    522.69681   -141.57827   -4918.2662 
46981000    20.772116   -5212.9596   -5172.8988   -5212.9596            0    2278.3377    19.896401    19.877668    20.616762    8153.8066     2395.918    2068.8781    2370.2171   -257.28427    169.64847   -341.58292   -4901.9705 
46982000     19.46073   -5210.9042   -5173.3726   -5210.9042            0    2124.0144    19.928311    19.877761    20.588686    8155.8002    1892.9942    1933.0674    2545.9814   -223.12064    721.30007    199.75434   -4920.7338 
46983000    20.024511   -5214.8321   -5176.2131   -5214.8321            0    2233.6522    19.844654     19.84365    20.694205    8149.1787    3052.6539    1606.7684    2041.5344    -109.9113    114.79141    158.01542   -4910.7493 
46984000    21.020863    -5213.128   -5172.5875    -5213.128            0    2068.3947    19.924826     19.88199     20.59199    8157.4179    2033.1276    2162.3257    2009.7308    1.2839568   -6.7792218   -54.364288   -4926.5156 
46985000    20.266764   -5214.2448   -5175.1587   -5214.2448            0    2059.4887    19.915014     19.84658    20.601424    8142.6082    1175.9363    2295.4686    2707.0614   -134.34257   -190.28189    -43.03103   -4930.5911 
46986000    19.904339   -5212.5288   -5174.1416   -5212.5288            0    2173.0119    19.904785    19.862366    20.571015    8132.8766    1661.2309    2167.8034    2690.0014   -301.56284    195.38814    229.14168   -4916.4014 
46987000    20.776591   -5214.1327   -5174.0633   -5214.1327            0    2561.1259    19.890411    19.797859    20.643227    8129.0457    1952.7187    3656.8992    2073.7596   -34.859619    408.73964    81.025067   -4870.4321 
46988000     20.18582   -5212.5737   -5173.6436   -5212.5737            0    2310.5883    19.874188    19.839399    20.696451    8160.4436    1590.5404    3065.8123    2275.4121   -189.69305    176.86418    320.31008   -4898.6566 
46989000    19.945738   -5212.4419   -5173.9749   -5212.4419            0    2595.9768     19.84876    19.866148    20.632877     8135.923    2697.1032    2802.6523    2288.1748   -342.59039   -55.366321   -191.12791   -4865.9516 
46990000    20.299658   -5212.1711   -5173.0215   -5212.1711            0    2301.9043    19.862079    19.825693    20.685019    8145.3363    2152.0459    2842.3012    1911.3657   -149.43455    165.20993    -25.74268   -4899.5751 
46991000    19.568513   -5214.2283   -5176.4888   -5214.2283            0    2005.0916    19.890272    19.879038    20.629644    8156.9502    2446.5337    1896.2941     1672.447   -29.716544    324.50801   -56.940244   -4937.9616 
46992000    20.592787   -5213.5864   -5173.8715   -5213.5864            0    2050.2777    19.832537    19.883406    20.670209     8151.057    1730.6852    2569.8595    1850.2884   -153.23863    118.98345   0.26970034   -4930.1451 
46993000    20.506537   -5211.0431   -5171.4945   -5211.0431            0    2254.5285    19.899387    19.792705    20.645652    8131.5523    1832.1955    2908.1714    2023.2186    -230.0602    484.92531   -198.29901   -4904.1292 
46994000     20.62662   -5212.2162    -5172.436   -5212.2162            0    1975.9997    19.877691    19.857783    20.637658    8146.2384    1806.2647    2000.5034     2121.231   -57.647054    494.09015    118.02037   -4937.6783 
46995000    20.361102   -5210.9978   -5171.7297   -5210.9978            0    2163.3763    19.864481    19.849891     20.68743    8157.2145    2285.6807    2176.2488    2028.1995   -77.336595     555.6247   -370.56965   -4914.3645 
46996000    20.925422   -5213.3311   -5172.9747   -5213.3311            0    2198.6371    19.880904    19.886065     20.58866    8139.7875    2362.0874    1937.1978    2296.6259   -89.976807     302.8876    121.43288   -4911.9735 
46997000    20.076259   -5211.7656   -5173.0469   -5211.7656            0    2142.5735    19.859871    19.881707    20.649273     8153.327    2233.0634    2048.7441    2145.9129   -119.88208    387.41499    300.46361    -4918.278 
46998000      20.5681    -5211.122   -5171.4547    -5211.122            0      2451.56    19.883035    19.868854    20.575044    8128.2354    2676.0421    2126.4562    2552.1816    -169.5419    314.75233    220.41073   -4880.8419 
46999000    18.799961   -5211.0467   -5174.7894   -5211.0467            0    2079.9331    19.968483     19.87381     20.55572    8157.5339    1748.8561    2097.7839    2393.1594    104.63682     427.7779   -173.51368   -4927.3413 
47000000    21.035425   -5210.6507   -5170.0822   -5210.6507            0     2072.975    19.926387    19.829098    20.612875    8144.6061    1833.2078    2556.3647    1829.3524   -151.29387   -184.04406   -39.089088   -4923.8527 
Loop time of 356.33 on 64 procs for 250000 steps with 972 atoms

Performance: 121.236 ns/day, 0.198 hours/ns, 701.596 timesteps/s
193.8% CPU use with 32 MPI tasks x 2 OpenMP threads

MPI task timing breakdown:
Section |  min time  |  avg time  |  max time  |%varavg| %total
---------------------------------------------------------------
Pair    | 24.054     | 33.641     | 46.977     |  81.6 |  9.44
Bond    | 1.0066     | 1.2263     | 1.7383     |  12.3 |  0.34
Kspace  | 153.99     | 166.62     | 176.27     |  36.8 | 46.76
Neigh   | 0.07568    | 0.079043   | 0.082059   |   0.8 |  0.02
Comm    | 63.003     | 64.906     | 67.51      |  13.6 | 18.22
Output  | 0.57198    | 0.57229    | 0.57418    |   0.0 |  0.16
Modify  | 70.691     | 72.271     | 75.24      |  11.4 | 20.28
Other   |            | 17.01      |            |       |  4.77

Nlocal:        30.3750 ave          35 max          23 min
Histogram: 2 1 2 1 3 6 5 2 3 7
Nghost:        2678.78 ave        2706 max        2654 min
Histogram: 4 2 2 5 4 4 4 3 3 1
Neighs:        9674.06 ave       12582 max        7084 min
Histogram: 3 3 0 7 4 3 6 4 0 2

Total # of neighbors = 309570
Ave neighs/atom = 318.48765
Ave special neighs/atom = 2.0000000
Neighbor list builds = 250
Dangerous builds = 0

unfix		3
unfix		2
unfix		1

write_data	data.final.${pid}
write_data	data.final.1
System init for write_data ...
PPPM initialization ...
  extracting TIP4P info from pair style
  using 12-bit tables for long-range coulomb (../kspace.cpp:340)
  G vector (1/distance) = 0.37178365
  grid = 24 24 24
  stencil order = 5
  estimated absolute RMS force accuracy = 0.0035611869
  estimated relative force accuracy = 1.0724408e-05
  using double precision FFTW3
  3d grid and FFT values/proc = 3211 432
Last active /omp style is kspace_style pppm/tip4p/omp
WARNING: Not all mixed pair coeffs generated from mixing. Use write_data with 'pair ij' option to store all pair coeffs. (../write_data.cpp:312)

write_restart   restart.lmp.${pid}
write_restart   restart.lmp.1
System init for write_restart ...
PPPM initialization ...
  extracting TIP4P info from pair style
  using 12-bit tables for long-range coulomb (../kspace.cpp:340)
  G vector (1/distance) = 0.37178365
  grid = 24 24 24
  stencil order = 5
  estimated absolute RMS force accuracy = 0.0035611869
  estimated relative force accuracy = 1.0724408e-05
  using double precision FFTW3
  3d grid and FFT values/proc = 3211 432
Last active /omp style is kspace_style pppm/tip4p/omp
Total wall time: 0:05:56
