#include		in.partitions
include		in.temp
variable        temperature equal 136.94
variable	tempDamp equal 100.0
include		in.pressure
variable        pressure equal 9543.8
variable        pressureDamp equal 1000.0 # This is 1 ps
include		in.seed
variable        seed equal 745823

units		real
atom_style	full

read_restart	restart.lmp.${pid}
read_restart	restart.lmp.1
Reading restart file ...
  restart file = 30 Jul 2021, LAMMPS = 30 Jul 2021
  restoring atom style full from restart
  orthogonal box = (0.22025226 0.12526929 0.16223222) to (19.779749 19.874732 20.537766)
  4 by 4 by 4 MPI processor grid
  restoring pair style lj/cut/tip4p/long/omp from restart
  restoring bond style harmonic/omp from restart
  restoring angle style harmonic/omp from restart
  972 atoms
  648 bonds
  324 angles
Finding 1-2 1-3 1-4 neighbors ...
  special bond factors lj:    0        0        0       
  special bond factors coul:  0        0        0       
     2 = max # of 1-2 neighbors
     1 = max # of 1-3 neighbors
     1 = max # of 1-4 neighbors
     2 = max # of special neighbors
  special bonds CPU = 0.008 seconds
  read_restart CPU = 0.023 seconds
include 	in.setup
variable	out_freq equal 1000
variable	out_freq2 equal 10000
variable	out_freq3 equal 1000

timestep	2.0

neigh_modify    delay 7 every 1

include		in.tip4p
# This is TIP4P/Ice

# create groups ###
group ox type 2
324 atoms in group ox
group hy type 1
648 atoms in group hy

# set charges - beside manually ###
set group ox charge -1.1794
Setting atom values ...
  324 settings made for charge
set group hy charge 0.5897
Setting atom values ...
  648 settings made for charge

# ### TIP3P Potential Parameters ###
pair_style lj/cut/tip4p/long/omp 2 1 1 1 0.1577 8.5
pair_coeff 1 1*2 0.000 0.000
pair_coeff 2 2 0.21084 3.1668
bond_style  harmonic
bond_coeff  1 450 0.9572
angle_style harmonic
angle_coeff 1 55 104.52
kspace_style pppm/tip4p/omp 1.0e-5
pair_modify tail yes

thermo          ${out_freq}
thermo          1000
thermo_style    custom step temp pe etotal epair emol press lx ly lz vol pxx pyy pzz pxy pxz pyz enthalpy

restart 	${out_freq3} restart.lmp.${pid} restart2.lmp.${pid}
restart 	1000 restart.lmp.${pid} restart2.lmp.${pid}
restart 	1000 restart.lmp.1 restart2.lmp.${pid}
restart 	1000 restart.lmp.1 restart2.lmp.1


include         in.dump
dump            myDump all atom ${out_freq2} dump.water.${pid}
dump            myDump all atom 10000 dump.water.${pid}
dump            myDump all atom 10000 dump.water.1
dump            myDump2 all dcd ${out_freq2} dump.dcd
dump            myDump2 all dcd 10000 dump.dcd
dump_modify     myDump append yes
dump_modify     myDump2 append yes


variable natoms 	equal  "count(all)"                        # NUMBER ATOMS
variable H      	equal  "enthalpy/v_natoms"                 # ENTHALPY-per-atom
variable Vol      	equal  "vol/v_natoms"                 # volume-per-atom
fix AVG all 		ave/time ${out_freq} 1 ${out_freq} v_Vol v_H file vol_enthalpy.dat
fix AVG all 		ave/time 1000 1 ${out_freq} v_Vol v_H file vol_enthalpy.dat
fix AVG all 		ave/time 1000 1 1000 v_Vol v_H file vol_enthalpy.dat


timer           timeout 02:55:00 every 1000
New timer settings: style=normal  mode=nosync  timeout=02:55:00

fix 		1 all shake 1e-6 200 0 b 1 a 1
       0 = # of size 2 clusters
       0 = # of size 3 clusters
       0 = # of size 4 clusters
     324 = # of frozen angles
  find clusters CPU = 0.004 seconds
fix             2 all nph aniso ${pressure} ${pressure} ${pressureDamp}
fix             2 all nph aniso 9543.8 ${pressure} ${pressureDamp}
fix             2 all nph aniso 9543.8 9543.8 ${pressureDamp}
fix             2 all nph aniso 9543.8 9543.8 1000
fix             3 all temp/csvr ${temperature} ${temperature} ${tempDamp} ${seed}
fix             3 all temp/csvr 136.94 ${temperature} ${tempDamp} ${seed}
fix             3 all temp/csvr 136.94 136.94 ${tempDamp} ${seed}
fix             3 all temp/csvr 136.94 136.94 100 ${seed}
fix             3 all temp/csvr 136.94 136.94 100 745823


run             250000
PPPM initialization ...
  extracting TIP4P info from pair style
  using 12-bit tables for long-range coulomb (../kspace.cpp:340)
  G vector (1/distance) = 0.3727268
  grid = 24 24 24
  stencil order = 5
  estimated absolute RMS force accuracy = 0.0034431419
  estimated relative force accuracy = 1.036892e-05
  using double precision FFTW3
  3d grid and FFT values/proc = 2197 216
Last active /omp style is kspace_style pppm/tip4p/omp
Neighbor list info ...
  update every 1 steps, delay 7 steps, check yes
  max neighbors/atom: 2000, page size: 100000
  master list distance cutoff = 10.8154
  ghost atom cutoff = 10.8154
  binsize = 5.4077, bins = 4 4 4
  1 neighbor lists, perpetual/occasional/extra = 1 0 0
  (1) pair lj/cut/tip4p/long/omp, perpetual
      attributes: half, newton on, omp
      pair build: half/bin/newton/omp
      stencil: half/bin/3d
      bin: standard
Per MPI rank memory allocation (min/avg/max) = 9.227 | 9.230 | 9.233 Mbytes
Step Temp PotEng TotEng E_pair E_mol Press Lx Ly Lz Volume Pxx Pyy Pzz Pxy Pxz Pyz Enthalpy 
30000000    141.09625   -4940.1773   -4668.0613   -4940.1773            0    9667.8226    19.559496    19.749462    20.375534    7870.8555    10523.308    8265.4848    10214.675    835.40169   -167.06811    1522.2551   -3558.3078 
30001000    138.93372   -4959.8485   -4691.9031   -4959.8485            0    9936.2871    19.631412    19.606149    20.419554    7859.4128    8997.2315    10274.846    10536.784    207.12369   -146.49007    71.812924   -3552.9912 
30002000    140.65735    -4957.202   -4685.9324    -4957.202            0    10225.262    19.552256    19.705796    20.417851    7866.8502    11260.471    9629.2396    9786.0764    362.02127    44.405972   -26.604246   -3512.7887 
30003000    133.39056   -4954.5211   -4697.2662   -4954.5211            0    9598.0733    19.539333    19.884313    20.286982    7882.0243    9526.1382     8614.839    10653.243   -405.18666    460.26651   -613.36993   -3593.9558 
30004000    135.35661   -4973.2958   -4712.2492   -4973.2958            0    8379.7529     19.65493    19.755792    20.314661    7888.1567    7457.0634    8416.4348    9265.7605    138.41859    444.60646   -378.29666   -3748.2367 
30005000    131.30214   -4943.3005   -4690.0733   -4943.3005            0    10022.192    19.661591    19.649112    20.316802     7849.047    10914.928    9684.5871    9467.0599   -41.381424    87.662872   -231.69475     -3542.83 
30006000    141.27133   -4950.3581   -4677.9045   -4950.3581            0    9937.0771     19.68253    19.696662    20.280922    7862.5111    9829.5182    10396.666     9585.047   -280.54175   -184.90049    161.48021    -3538.453 
30007000    135.91751   -4954.5821   -4692.4537   -4954.5821            0    9532.7944    19.618891    19.725868    20.373813    7884.6584    9442.7586     8867.349    10288.276   -152.64681    708.66653   -33.719179    -3596.281 
30008000    140.99399   -4957.5114   -4685.5926   -4957.5114            0    8878.4718    19.476429    19.743733    20.428483    7855.5162    9228.6305    8380.7372    9026.0477   -225.74124   -646.23566   -447.85606   -3668.4337 
30009000    138.05532   -4933.3034   -4667.0521   -4933.3034            0    10836.772    19.573079    19.753773    20.287114    7843.8534    11944.416    9696.7656    10869.136   -596.01221   -648.84035   -318.54864   -3427.3844 
30010000    140.90182   -4953.8195   -4682.0785   -4953.8195            0    10793.983    19.553901    19.856748    20.287906    7877.3249    10106.319    11557.309    10718.321   -916.42024     1412.111    235.41648   -3442.0366 
30011000    139.49414   -4956.5926   -4687.5664   -4956.5926            0    10387.774    19.412701     19.73603    20.427238    7826.2801    12147.579     9239.688    9776.0561   -378.14707    254.59243   -926.29597   -3501.9238 
30012000    145.41377   -4937.2766   -4656.8339   -4937.2766            0    10032.159    19.399843    19.687134    20.506091    7831.8361    11342.684    9104.9447    9648.8475    92.928184    1520.2322    571.26962   -3510.9678 
30013000    146.07536    -4958.258   -4676.5394    -4958.258            0    8601.0001    19.684969    19.829718    20.281061    7916.6589    8988.8121     7497.369    9316.8193    142.27533    -137.3319    237.59288   -3683.4993 
30014000    139.52256   -4961.5196   -4692.4386   -4961.5196            0    11136.983    19.536078    19.822437    20.252383    7842.7895    12464.707    9682.3092    11263.932     182.8203    1003.8092   -339.92545   -3418.6012 
30015000    139.39771   -4961.9743   -4693.1341   -4961.9743            0    10689.604    19.403849    19.734877    20.529625    7861.4622     13143.54    9542.9459    9382.3268   -271.16264   -59.821191    572.19979   -3467.5564 
30016000     140.7735   -4957.6999   -4686.2063   -4957.6999            0    9815.1223    19.511421    19.646284    20.497615    7857.2873    10263.535    10895.264    8286.5674    229.40304   -227.42863    -23.11682   -3561.4868 
30017000    140.02306   -4965.7283   -4695.6821   -4965.7283            0    9253.6622    19.569554    19.720264    20.415006    7878.4931    8267.6563    10180.321    9313.0088     -2.07539    188.27548   -195.69118   -3632.4387 
30018000     126.5446   -4943.8897   -4699.8377   -4943.8897            0    10160.499    19.453047    19.700202    20.437635    7832.2934    10739.455    9678.7713    10063.272   -611.15682    250.50179   -117.14404   -3539.2449 
30019000    136.52589   -4956.4196   -4693.1179   -4956.4196            0    8494.0356    19.631251    19.851925    20.237854    7887.0583    9090.3464    8551.7168    7840.0435     395.2304    837.60843   -177.21333   -3716.0944 
30020000    137.97533   -4968.2285   -4702.1315   -4968.2285            0    8984.2985     19.70488    19.709748    20.391113    7919.4639    9247.0445    9033.0856    8672.7654   -436.15109    206.18721     1236.607   -3664.4696 
30021000    128.98662   -4948.4812   -4699.7196   -4948.4812            0    10123.323    19.581642    19.608801    20.406643      7835.59    9658.4018    11791.192    8920.3737     469.3244    586.88755   -373.57553   -3542.8866 
30022000    138.85672    -4961.749   -4693.9521    -4961.749            0    9780.1105    19.670533    19.778867    20.277219     7889.072      11254.2    8318.6563    9767.4751   -21.009115   -21.081243    426.69337    -3568.711 
30023000     138.5344   -4969.5671   -4702.3919   -4969.5671            0    9644.8392    19.571383    19.710789    20.347467    7849.3898    10901.767    8462.9146    9569.8359   -400.53751    184.47262    887.92799   -3598.2961 
30024000    144.79581   -4951.8665   -4672.6156   -4951.8665            0    9337.8025    19.715263    19.698619     20.41493    7928.4126     10363.38    8949.2344    8700.7927   0.97782816    466.62193    148.47369   -3592.9064 
30025000    146.77778   -4953.4193    -4670.346   -4953.4193            0    10781.835    19.625646    19.661742    20.321596    7841.5832    10360.946    11162.896    10821.663    116.44146    902.16682    806.85919   -3437.3197 
30026000    144.52447   -4952.1511   -4673.4235   -4952.1511            0    9821.4686    19.479735    19.788054    20.411463    7867.9256    11066.902    9400.0691    8997.4345   -148.35165   -197.16126    93.759533    -3546.453 
30027000     145.8617   -4955.2777   -4673.9712   -4955.2777            0    9254.1024     19.59986    19.755792    20.360068    7883.6373    8154.0732    10692.118    8916.1159    39.843566   -391.98467   -241.26531   -3609.9829 
30028000    138.81265   -4966.2802   -4698.5683   -4966.2802            0    10852.339    19.642856    19.547648    20.470514    7860.0964    11198.511    10863.823    10494.684   -761.53963   -212.71895    359.30695    -3454.549 
30029000    138.12782   -4954.6204   -4688.2293   -4954.6204            0    8676.8925    19.528312    19.765267    20.410479    7878.0837    8570.3798    8581.2758     8879.022   -7.6683309   -319.87919    174.50201   -3691.3084 
30030000    142.97193    -4956.835   -4681.1016    -4956.835            0    9543.2495    19.583696    19.729834    20.378485    7873.9017    8705.0779    10713.498    9211.1728    -330.9724   -1058.0809   -325.13305   -3585.2237 
30031000     139.4043   -4948.7177   -4679.8648   -4948.7177            0    10089.682    19.700429    19.831524    20.243676    7908.9921    10149.908    9841.8515    10277.285    -416.6611    10.799199    923.71513   -3516.0751 
30032000    141.42417    -4957.972   -4685.2236    -4957.972            0    8568.3277    19.482025    20.047569    20.240634    7905.3286    11215.219    5982.1162    8507.6478   -24.056291     602.5953    211.10871   -3697.3716 
30033000     132.9301   -4955.0532   -4698.6863   -4955.0532            0     7679.079    19.657793    19.786504    20.415903    7940.9491    8145.7018    6475.4236    8416.1116   -510.05773   -1563.9013   -282.29879   -3809.3676 
30034000    131.46352    -4953.348   -4699.8096    -4953.348            0    9588.5368    19.697088    19.717109    20.284642    7877.9388    9840.9626    9482.5157    9442.1322   -420.16483   -87.158337    55.880046   -3598.1667 
30035000    129.25286   -4952.8777   -4703.6027   -4952.8777            0    9696.4848    19.519171    19.767881    20.260621    7817.6139    10755.246    7798.1339    10536.075   -227.14478   -1387.1887    14.099916   -3598.0883 
30036000    130.89014   -4965.8859   -4713.4532   -4965.8859            0    8089.5956    19.662259    19.727906    20.450385    7932.6064    8092.2358    7267.8045    8908.7465   -354.49395   -441.13521   -420.04423   -3777.5766 
30037000    137.96671   -4957.7361   -4691.6557   -4957.7361            0    10092.172    19.668926    19.566921    20.430415     7862.856    10268.836    10294.208    9713.4736   -525.64335    101.83205    80.475806   -3534.3692 
30038000    140.19933   -4954.4334   -4684.0472   -4954.4334            0    9699.9206    19.676949    19.683593    20.377448    7892.4515    9115.4973    10566.191    9418.0735     -367.131    865.08608    183.46087   -3567.5543 
30039000    136.09058   -4966.0139   -4703.5517   -4966.0139            0    9361.8995    19.715948    19.646384    20.373736    7891.7071    8206.3548    10340.872    9538.4717   -466.26626   -470.75536   -127.28784   -3626.0677 
30040000    133.70581   -4954.9419    -4697.079   -4954.9419            0     8625.172     19.65266    19.728421    20.414758    7915.1271    8923.5927    9077.8095    7874.1139    -430.8322   -6.3413351   -102.97307   -3701.4408 
30041000    134.88443   -4948.6049   -4688.4689   -4948.6049            0    9761.0582    19.593329     19.78932      20.3099     7874.933    9882.5309    10433.578    8967.0654    83.839908    -990.5617   -181.97462   -3567.4326 
30042000     132.4665   -4953.4572   -4697.9845   -4953.4572            0    10222.353    19.647044    19.697653    20.320658    7864.1077    9060.6652    10340.658    11265.737   -439.87647    272.37258    646.19939   -3525.5833 
30043000    139.78259   -4942.2874   -4672.7049   -4942.2874            0    10259.121    19.603981    19.500398    20.512254    7841.5356    10844.245     10306.55    9626.5663    219.03659    311.07629    -312.7676   -3499.4641 
30044000    127.79183   -4955.5121   -4709.0548   -4955.5121            0    9216.7272    19.748598     19.73512    20.210186    7876.7372    8715.3691    9070.2958    9864.5167    375.08604    436.75019    384.98211   -3650.2913 
30045000    132.41627   -4961.2247   -4705.8488   -4961.2247            0    10773.229    19.794939    19.667201    20.183989    7857.8496    10260.113    10612.254    11447.321    216.88539     725.9785   -594.66052    -3471.251 
30046000    135.97876   -4966.0519   -4703.8054   -4966.0519            0     9221.455    19.656688    19.761669    20.322404    7894.2171    9194.8938     8124.993    10344.478    89.846354   -868.82334   -1417.6091    -3642.148 
30047000    139.56902   -4959.5206     -4690.35   -4959.5206            0    9864.7283     19.69267    19.632663    20.307381    7851.2306    7347.1478    12346.948    9900.0896   -124.63568    853.09282     159.0922   -3560.8175 
30048000     134.3209   -4970.9363   -4711.8871   -4970.9363            0    8992.7647    19.845095    19.714664    20.259429    7926.2859     8286.182    9390.2478    9301.8644    128.47929   -716.70593    10.544174   -3672.3527 
30049000    132.97716    -4939.492   -4683.0344    -4939.492            0    12055.433    19.567491    19.552272     20.55527     7864.218    13722.297    11705.859    10738.145   -239.30858   -745.35425   -888.42014    -3300.378 
30050000    138.96573   -4973.6938   -4705.6867   -4973.6938            0    9324.0493    19.473823    19.767029    20.449222    7871.7156     10754.13    8882.0563    8335.9613   -66.960633    492.50546    445.21031   -3635.2775 
30051000    149.75838   -4940.9456   -4652.1239   -4940.9456            0    9231.6503    19.438207    19.805068    20.372817    7843.0255    8945.1126    7760.3351    10989.503    4.1157649   -96.660414    1127.7089   -3596.1848 
30052000    132.08778   -4952.9564    -4698.214   -4952.9564            0    11050.586    19.580348    19.695836    20.358808    7851.4011     10426.69    10609.532    12115.535   -116.58366   -98.923155   -545.42789   -3432.8707 
30053000    129.23951   -4962.5371   -4713.2879   -4962.5371            0    10804.628    19.636436    19.717522    20.360165    7883.0868    12305.772    9491.0247    10617.088    690.89644     96.02699   -501.21507    -3471.115 
30054000    142.08024   -4957.4053   -4683.3916   -4957.4053            0     7745.874    19.523728    19.891503    20.360104    7906.9745    7551.8987    7783.5425    7902.1809     -186.133     550.5507    857.67735   -3790.1753 
30055000    142.08647   -4967.0101   -4692.9844   -4967.0101            0    8694.0433    19.618517     19.87586    20.237702    7891.3865    7956.0903    8238.6281    9887.4115    733.52984   -419.13806    695.89721   -3692.4063 
30056000    138.03937   -4931.7532   -4665.5326   -4931.7532            0    9858.0575    19.450062    19.722093     20.51284     7868.642    10105.444    9699.5844    9769.1445    289.38329   -1330.7157    601.77832   -3534.2607 
30057000    128.65345   -4962.9338   -4714.8148   -4962.9338            0    8075.0439    19.481593    19.806604    20.513737    7915.5169    8714.6072     7745.802    7764.7226   -662.42558   -308.55797    710.31847   -3782.6342 
30058000    140.69169   -4962.9882   -4691.6524   -4962.9882            0    10010.767    19.564741    19.738342    20.392655    7875.1451    10709.029    9286.1458    10037.126   -136.91284    617.78972    116.57842   -3541.9067 
30059000    139.57135   -4960.5931    -4691.418   -4960.5931            0    10653.036    19.514767    19.670233    20.426547    7840.9347    11239.077    10430.601     10289.43   -237.11025    -1469.841    237.41389   -3473.2222 
30060000     131.3621   -4949.1069   -4695.7641   -4949.1069            0     9106.134    19.411221    19.765907    20.564036    7890.0174    9044.9594    9346.2346    8927.2081    278.56272   -1774.8782   -174.04478   -3647.9412 
30061000    135.51002   -4947.1391   -4685.7967   -4947.1391            0    9073.9228    19.501745    19.789201    20.413281    7877.9737    10398.518    8244.8457    8578.4049     78.38364    681.81922    261.36274    -3643.274 
30062000    144.69222    -4954.317   -4675.2659    -4954.317            0    7988.3244     19.76772    19.776127    20.345289    7953.5624    6246.0627    8949.5565    8769.3541    53.188615   -1022.5713    1483.3379   -3748.6638 
30063000    137.65793   -4944.5394   -4679.0545   -4944.5394            0    7833.3632    19.468859    19.729347     20.52686    7884.5284    8035.4337    7873.0894    7591.5666    60.638743    599.43147    22.123571   -3778.3136 
30064000    136.04104   -4950.1091   -4687.7425   -4950.1091            0    9612.3322    19.577595    19.545584    20.482412    7837.7081    8827.7289    10664.755    9344.5129    603.12566    403.05686    565.60852   -3589.0055 
30065000    139.19696   -4968.8974   -4700.4443   -4968.8974            0    9508.4522    19.611927     19.88483    20.257014     7899.827    9374.6137    9405.4287    9745.3141   -712.53924    764.28689   -8.2234659   -3604.9672 
30066000     137.7596    -4937.095   -4671.4141    -4937.095            0    8713.6236    19.628656    19.749562    20.387793    7903.4781    10757.691    7421.3667    7961.8132   -89.337981     394.0817    -799.9379   -3667.0459 
30067000    132.01837   -4955.5946    -4700.986   -4955.5946            0    8943.3425    19.757899    19.426016    20.562133    7892.1014    9427.3928    9796.8894    7605.7452   -305.22081    718.51655    566.77997   -3671.6234 
30068000    139.30911   -4958.4478   -4689.7785   -4958.4478            0    9637.8437    19.662161    19.535014    20.493608    7871.6071    10201.447    9424.3129    9287.7711    176.49251    1302.8105    138.59437   -3583.3606 
30069000    136.42234   -4976.2228   -4713.1209   -4976.2228            0    8911.7539    19.855974    19.616238    20.283821    7900.5383    9947.5713    8025.1171    8762.5733   -34.964609    361.59751   -26.232002   -3686.2975 
30070000    134.93092    -4939.992   -4679.7663    -4939.992            0    9926.9275    19.842178    19.483402    20.305331    7849.9017    8631.5063    11397.496    9751.7802    111.77096   -143.47539   -3.7343092   -3543.3042 
30071000    139.35007   -4955.3977   -4686.6494   -4955.3977            0    9171.3618     19.84861    19.663918    20.203692    7885.5298    8006.9726    9187.9896    10319.123   -62.772573   -142.28016    420.19403   -3631.9211 
30072000     144.5842   -4940.2707   -4661.4279   -4940.2707            0    9253.5623     19.95944    19.534664    20.302196    7915.8458    10307.846    8553.2567    8899.5845    -520.6909    1201.7705    572.36288   -3593.1551 
30073000    134.73991   -4969.8842   -4710.0269   -4969.8842            0    8867.5932    19.820283    19.430475    20.415129    7862.2234    8550.3415    9174.3519    8878.0861    97.111591     483.5773    601.70469   -3693.2469 
30074000    134.64497   -4953.1074   -4693.4333   -4953.1074            0    10571.478     19.77024    19.390748    20.365725    7807.3992    10558.735     10845.94    10309.759   -409.20388    721.10751   -304.91842    -3489.734 
30075000    137.41576   -4955.2153   -4690.1974   -4955.2153            0    9966.8106    19.695472    19.440201    20.447279    7828.9347    8759.1444    11344.923    9796.3639   -577.04269   -214.86765    20.119699   -3552.2171 
30076000    142.04043   -4974.6694   -4700.7325   -4974.6694            0    8345.8208    19.792346    19.830997    20.230039    7940.3298    7706.6156    8663.9168    8666.9301   -241.97882     225.5478   -449.93361   -3734.2734 
30077000    132.12283   -4966.1584   -4711.3485   -4966.1584            0    9205.0673    19.476638     19.66813    20.493989    7850.6131    8916.2309    9652.8047    9046.1662   -192.59728   -320.90079   -983.50075   -3657.4314 
30078000    141.09638   -4945.0269   -4672.9107   -4945.0269            0    8658.1853    19.611118    19.681151    20.421845    7882.2066    10030.964    7274.5619    8669.0303   -196.32988   -1161.5379    741.14043   -3677.6185 
30079000    134.40344   -4959.8995   -4700.6912   -4959.8995            0    8081.0547    19.622721    19.619771    20.453958    7874.6369    7643.4332    8040.1605    8559.5705    -928.3764    523.03006    280.20897   -3772.6346 
30080000    137.67852   -4938.4068   -4672.8822   -4938.4068            0    9790.3978    19.772687    19.625942     20.26489    7863.9443    7407.0341    11417.208    10546.951    156.35462   -207.41253   -108.50368   -3550.0453 
30081000    143.67673    -4967.281   -4690.1883    -4967.281            0    8372.9328    19.656785    19.686733    20.394663    7892.2833    8308.5424    8275.8725    8534.3836    218.28871    1620.3443   -365.44189   -3726.4566 
30082000    139.86811   -4978.8104    -4709.063   -4978.8104            0    8654.5571    19.609778    19.672177    20.498566    7907.6707    8519.0043    8902.4219    8542.2452   -299.49603     50.42556    71.229666   -3710.9739 
30083000    138.27736   -4956.2149   -4689.5354   -4956.2149            0    9019.1435    19.572496    19.751771    20.397775    7885.6054    9256.3556    8407.0584    9394.0165   -196.52338    637.06357     651.3425   -3652.3026 
30084000    141.04695   -4950.8286   -4678.8077   -4950.8286            0     8902.703    19.581184    19.845725    20.446026    7945.3827     9433.003    8681.5568    8593.5491   -265.08281    660.29696    322.87875   -3647.2047 
30085000    133.09685   -4954.9393   -4698.2508   -4954.9393            0    10721.398    19.537683    19.810002    20.244435    7835.4373    13113.429     8625.731    10425.034   -111.81648     53.25193    461.88312   -3473.0972 
30086000    137.90302   -4968.7943   -4702.8367   -4968.7943            0     8167.063    19.514294    20.014869    20.250419    7909.3284    8530.0616     6986.208    8984.9193   -518.75954    625.65836     -497.288   -3760.7706 
30087000    138.12479   -4963.7512    -4697.366   -4963.7512            0    9612.2429    19.605639    19.749816    20.294021    7858.0027    8858.5712    11033.425    8944.7323   -348.34138   -160.86583   -593.01052   -3595.7942 
30088000    140.79646   -4969.4212   -4697.8834   -4969.4212            0    7797.5791    19.735561    19.788356    20.312287    7932.6447    7908.1416    6952.4304    8532.1653     -1.75186   -134.47373   -174.51142   -3795.7855 
30089000    131.39854   -4969.5822   -4716.1691   -4969.5822            0    9310.2476    19.799311     19.64535    20.241122    7873.0758    9389.2969    7954.2683    10587.178   -312.96801    770.55884   -88.447292   -3647.1596 
30090000    135.53777   -4961.4718   -4700.0758   -4961.4718            0    9379.9658    19.810454    19.668757    20.280909    7902.3955     9248.383    9283.6764    9607.8379   -641.85608   -306.07613    319.29712   -3619.0504 
30091000    133.01082   -4954.1009   -4697.5783   -4954.1009            0    8546.1229    19.563603    19.733836    20.336718    7851.2939    8100.6772    9200.3871    8337.3043   -580.15535    10.860716    194.05631    -3719.021 
30092000    133.24613    -4944.418   -4687.4416    -4944.418            0    9246.9114      19.4787    19.715728    20.371066     7823.238     8178.943    9931.6763    9630.1149    30.110332    222.36218   -24.419356   -3632.4254 
30093000    137.41808   -4947.2987   -4682.2764   -4947.2987            0     9001.011    19.656478    19.755052    20.361629    7906.7206     7449.221    8998.7796    10555.032   -656.94266    1174.9888   -324.14263   -3644.3571 
30094000    136.45625   -4960.1627   -4696.9954   -4960.1627            0    9138.2188    19.671264     19.78245    20.343656    7916.6479    9072.0069    10086.123    8256.5263    489.12072    378.92815     310.8925   -3641.9314 
30095000    134.43548    -4972.283   -4713.0129    -4972.283            0    8655.2354    19.587106    19.700657    20.379857    7864.1557    9059.4238    8118.2566    8788.0259    167.05922   -200.51185    680.59266   -3720.3383 
30096000    134.13139   -4939.8237   -4681.1401   -4939.8237            0     8783.581     19.50881    19.734508    20.402437    7854.8722    8368.6306    9201.0141    8781.0983   -91.498489   -146.95378    584.08218   -3674.9347 
30097000     137.7233   -4955.5278   -4689.9168   -4955.5278            0    9681.2144    19.446586    19.745375    20.487526    7866.8026    10053.502    9256.9622    9733.1791   -408.10554   -696.72765    598.07615   -3579.1984 
30098000    133.70244   -4954.1371   -4696.2807   -4954.1371            0    9037.6543    19.478688    19.890066    20.436251    7917.6657    10503.568    7505.1225    9104.2725   -471.16554    -244.4397    519.65828   -3652.6934 
30099000    136.07541   -4956.6001   -4694.1672   -4956.6001            0     9044.421    19.394363    19.829569    20.495524    7882.2067    9993.6973      7803.89    9335.6758    221.79287   -1643.6139   -308.64933   -3654.4758 
30100000    139.63638   -4958.3405   -4689.0401   -4958.3405            0    10122.172    19.422831    19.787739    20.404009    7841.9526    9632.1303     9600.812    11133.573   -30.411307    31.971971   -1199.6535   -3531.3993 
30101000     133.0002   -4973.4121     -4716.91   -4973.4121            0    9594.9621    19.516976    19.752186    20.433587     7877.208    10556.927    9220.1908    9007.7682    132.24273     294.4476   -1291.3513   -3614.6312 
30102000    132.34478   -4945.7133   -4690.4753   -4945.7133            0    9580.1997    19.567432     19.55195    20.559765    7865.7846    9561.1412    9851.3601    9328.0977   -438.41788   -1.1636717     235.6626   -3591.4884 
30103000    139.75818   -4948.9086   -4679.3732   -4948.9086            0    8415.9021    19.478807     19.69505    20.476873    7855.6674     8522.998    8045.8159    8678.8924    506.02712   -673.05812    848.56336   -3715.1898 
30104000    136.16051   -4944.6949   -4682.0979   -4944.6949            0    9730.4051    19.529587    19.702359    20.435264    7863.0588    10924.813    8834.1138    9432.2889   -219.88254    1125.5853   -64.437677   -3566.2671 
30105000     145.6754   -4952.1471   -4671.1998   -4952.1471            0    9394.2376    19.601552     19.70321     20.37702    7869.8802    8198.5586    9799.9027    10184.252    458.49038    990.77561    579.26232   -3592.9844 
30106000    135.36117   -4962.4474    -4701.392   -4962.4474            0    9410.9548    19.599269    19.719849    20.355807    7867.4096    8809.1853    9461.2171    9962.4619    365.37979    1536.5699    426.47341    -3621.597 
30107000    139.44417   -4954.8316   -4685.9018   -4954.8316            0    9488.0376     19.50003    19.617111    20.556509    7863.5687    10380.947    9527.1479     8556.018   -298.47131    -681.1944    1337.6889   -3597.7938 
30108000    140.17731   -4949.6367    -4679.293   -4949.6367            0    10090.175    19.585205    19.632079    20.437823     7858.308    10369.914    10673.945    9226.6642    -30.16756    600.87465   -620.58481   -3522.9049 
30109000    137.79003    -4963.681   -4697.9413    -4963.681            0    10050.268     19.85098    19.724514     20.25266    7929.9478    9070.8509    10881.238    10198.716    329.16304    1682.5825    812.10949   -3535.6262 
30110000    146.34889   -4961.1361   -4678.8899   -4961.1361            0    11036.814    19.600167    19.656506    20.404069    7861.0917     11904.56    11738.483    9467.3978   -971.40151   -767.17017   -122.46919   -3413.5638 
30111000    140.57807   -4949.0302   -4677.9136   -4949.0302            0    9341.6982    19.672782    19.603414    20.463004     7891.633    10082.136    9740.1786    8202.7804   -579.19664    633.74351    -626.4131   -3602.7647 
30112000    143.05669   -4961.5926   -4685.6957   -4961.5926            0    9750.7227    19.614538    19.684432    20.393604    7873.9919    9442.0498    10246.554    9563.5645     -575.224   -12.794999    1065.9603   -3565.9803 
30113000    133.70449   -4968.9143    -4711.054   -4968.9143            0    8752.1989    19.708174    19.790183    20.311822    7922.1872    8569.0572    9476.8247    8210.7148    65.372502    799.86607   -735.56068   -3699.8514 
30114000    138.62851   -4952.9965   -4685.6398   -4952.9965            0    9433.6264    19.702137    19.730812    20.293593    7888.9144    10177.873    7904.8543    10218.152    517.18191   -100.68928    -123.6018   -3600.2848 
30115000    137.97995   -4956.4046   -4690.2987   -4956.4046            0    10266.156    19.559253    19.750682     20.35161    7862.0018    10952.488    10079.927    9766.0544    503.11763   -32.047096    431.69674   -3513.1891 
30116000    127.32985   -4956.6428   -4711.0765   -4956.6428            0    7700.3262    19.659215     19.84976    20.269097    7909.6242    6586.5948    7766.8834    8747.5005     238.7064    526.49529    198.73421   -3822.8149 
30117000    134.78156   -4969.3878   -4709.4502   -4969.3878            0    9613.0033    19.665586     19.71732     20.34958    7890.6035    8335.1069    10368.478    10135.425    160.36878   -480.86774    27.638115   -3603.2208 
30118000    130.98085   -4955.8892   -4703.2816   -4955.8892            0     9604.356    19.504537    19.646319    20.575932    7884.5396    10306.228    9453.7693    9053.0711    205.17814    329.61684   -43.889509   -3598.8966 
30119000    134.61916   -4961.2803   -4701.6559   -4961.2803            0    9754.3162    19.522607    19.655883    20.432533    7840.6591    10275.561    8966.6917    10020.696   -198.80468    737.01509    1690.5327   -3586.2697 
30120000     140.6961   -4953.3133   -4681.9691   -4953.3133            0    10163.338    19.493957    19.577248    20.550954    7843.0258    11204.939     9926.445    9358.6304   -26.509187   -337.17827   -1127.0158   -3519.4612 
30121000    133.01849   -4961.0303   -4704.4929   -4961.0303            0    11607.094    19.579279    19.582933    20.418372    7828.8063     12807.33    11459.976    10553.977   -831.56652   -589.48797    0.8241162   -3379.2517 
30122000    139.81082   -4946.1935   -4676.5566   -4946.1935            0    10236.332     19.59437    19.691812    20.425178    7881.0273    10493.146     10351.66     9864.189    11.014658   -924.73811    193.27733   -3500.0264 
30123000    137.15689   -4948.9939   -4684.4753   -4948.9939            0    10870.418     19.53777    19.611116    20.383187    7809.9709    10475.317    12021.075    10114.862    198.18685    262.10727   -863.22041   -3446.3302 
30124000     132.9728   -4940.0152    -4683.566   -4940.0152            0    10056.719    19.604541    19.584498    20.410727    7836.5984    10000.029    9692.2282    10477.899    409.93064    1327.2453    445.55641   -3534.1961 
30125000    138.99972   -4938.7818   -4670.7092   -4938.7818            0    11231.076    19.697406    19.618916    20.283389    7838.3484     10403.67    11421.216    11868.341   -812.38724   -502.04986    1002.8655   -3386.8369 
30126000    133.50027   -4968.1574   -4710.6909   -4968.1574            0    10057.606     19.64058    19.689988    20.361559    7874.2784     8279.547    12514.747    9378.5235   -137.31649    -52.14738    590.66572   -3555.6928 
30127000    132.20388   -4957.1427   -4702.1764   -4957.1427            0    9929.3148    19.576979     19.66665    20.530687    7904.5937    10741.154    10030.712    9016.0787   -797.60929   -474.32213    108.78909   -3557.5211 
30128000    134.02815   -4953.7227   -4695.2382   -4953.7227            0     10127.56    19.424441    19.739547     20.43172    7834.1274    10188.607    9563.5935     10630.48   -326.53961   -205.87811    1078.4107    -3538.137 
30129000      146.526   -4953.4299   -4670.8422   -4953.4299            0    9219.9684    19.647728    19.796739    20.300349    7896.0431    10207.597    8208.8748    9243.4334    277.01539     178.2137    368.52202   -3609.1104 
30130000    131.27074   -4964.2237   -4711.0571   -4964.2237            0    10480.372    19.664003    19.677586    20.268829    7842.8229    10693.924     10615.95     10131.24   -322.29695    1355.2734     371.9437   -3512.3171 
30131000    131.00843    -4970.347   -4717.6862    -4970.347            0    9292.2265    19.520983    19.724109    20.483473    7886.8332    9377.1452    10978.746    7520.7887    111.65104   -1154.3418    1390.3186   -3648.8816 
30132000    138.06377   -4947.7142   -4681.4466   -4947.7142            0    8346.6552    19.568565    19.879089    20.374647    7925.8444    9776.5287    7361.0426    7902.3944   -191.10638    244.04293    112.63302   -3716.6542 
30133000    146.01691   -4956.0185   -4674.4126   -4956.0185            0    9611.9537    19.574355    19.807401     20.29982    7870.5874    9838.1504    9545.1554    9452.5553    -331.4604   -442.89804   -172.66053   -3571.1098 
30134000    130.21227   -4949.0305   -4697.9052   -4949.0305            0    10844.866    19.584312    19.639887    20.389759    7842.5877    9762.2363     11549.86    11222.501    79.327087   -67.670012    441.50796   -3457.5117 
30135000    138.97642   -4961.7004   -4693.6726   -4961.7004            0    9725.7025    19.488853    19.618765    20.551823    7857.9329    12012.335    7473.4077    9691.3647   -289.20591   -393.40224      602.535   -3579.1082 
30136000     142.3139   -4966.0635   -4691.5992   -4966.0635            0    10065.251    19.741506    19.527171    20.512295    7907.4024    10152.783    10625.118    9417.8507   -176.14012    1999.7596   -148.88262   -3530.8609 
30137000    134.67628   -4956.2543   -4696.5198   -4956.2543            0    9555.4464     19.67622    19.496021    20.423615    7834.6621    9714.8042    8977.9132    9973.6216    763.44004    -208.2461    -239.5464   -3604.7096 
30138000    139.39758   -4968.0804   -4699.2405   -4968.0804            0    8500.2488    19.729393    19.759205    20.221036    7882.9106    8428.5261    8634.5708    8437.6494   -107.19964     2.013387    599.06629   -3722.0165 
30139000    126.30503   -4964.4188   -4720.8289   -4964.4188            0    8458.4429    19.932685    19.586141    20.240628    7902.0298     8440.786    8361.8612    8572.6815    258.51733   -200.21791    724.22628   -3746.0526 
30140000    139.46669   -4956.1338   -4687.1605   -4956.1338            0    9719.5216     19.91762    19.520965    20.327769    7903.6636    9206.7089    10688.073    9263.7831    154.80533    78.371313    17.996456   -3566.8221 
30141000    137.02007   -4952.8744   -4688.6197   -4952.8744            0    9972.8255    19.500505    19.670426    20.410686    7829.1973    9601.4171    9649.9568    10667.102   -158.20877   -54.244205    156.39279   -3549.9144 
30142000    138.59035   -4961.3337   -4694.0506   -4961.3337            0    9190.7372     19.60617    19.783971    20.287247    7869.1777    10015.355    8189.3882    9367.4681    160.20121   -337.64908    -1259.604   -3639.2859 
30143000    134.69839   -4957.2541   -4697.4769   -4957.2541            0    9375.3875    19.583745    19.746186    20.324457    7859.5542    9495.5027    9897.2864    8733.3732   -686.58607     1435.136    311.59389   -3622.8368 
30144000    139.25864   -4957.7556   -4689.1836   -4957.7556            0    10206.718    19.602888    19.706307    20.328487    7852.9055    9691.3243     9915.818    11013.013     73.26087      26.8701   -1873.0099   -3520.2431 
30145000    136.48662   -4951.6788   -4688.4529   -4951.6788            0    10899.253     19.51607    19.652957    20.439576    7839.5685    10640.485     10881.71    11175.563   -24.675615    410.70407    280.41592   -3442.3188 
30146000    129.88039   -4954.2696   -4703.7843   -4954.2696            0    9026.7598    19.630455    19.530374    20.596145    7896.3587      8720.84    10615.145    7744.2948    430.26569   -287.31664   -94.164188     -3664.26 
30147000    137.03182   -4977.5992   -4713.3218   -4977.5992            0    8471.5678    19.685106    19.696071    20.383187    7902.9539    7998.1392      9389.51    8027.0543   -567.72599    975.67277    450.06141   -3736.9187 
30148000    139.60817   -4982.7891    -4713.543   -4982.7891            0    7674.4484    19.748825    19.774566     20.39339     7964.117     7130.596     7607.267     8285.482    86.403558     214.4459    975.03252   -3822.1675 
30149000    141.54591   -4968.2434   -4695.2602   -4968.2434            0    8422.6494    19.852886    19.741869    20.328391    7967.3685    7620.5765    8105.9126    9541.4591   -440.69161    -699.1943    117.85607   -3716.5829 
30150000    140.93503   -4965.1964   -4693.3913   -4965.1964            0     10284.69    19.538135    19.808975    20.255413    7839.4613     12361.34    7237.6205    11255.109   -443.93315    279.86383    634.78491   -3517.5375 
30151000    134.36808    -4931.113   -4671.9729    -4931.113            0     10527.52    19.428666    19.694773    20.566729    7869.7181    11284.285    10906.149    9392.1249   -845.84027   -24.294499   -47.412611   -3463.7108 
30152000    139.57631   -4953.0056   -4683.8209   -4953.0056            0    10105.204    19.696628    19.529883    20.546374    7903.6318    11073.123    10383.698    8858.7905    -665.9363    974.21903   -232.57722   -3519.0308 
30153000    136.57433   -4958.3389   -4694.9438   -4958.3389            0     9276.614    19.604922    19.526413    20.569245     7874.191     10231.79    9425.8382    8172.2144   -319.22718    650.51495    1543.0133   -3629.6453 
30154000    138.62315   -4950.7315   -4683.3851   -4950.7315            0    10835.723    19.611369    19.552893    20.384085     7816.461    10426.213    10754.341    11326.613    131.52787    414.61354     467.1079   -3448.1662 
30155000    134.61198   -4957.1867   -4697.5762   -4957.1867            0    9337.6099    19.671194    19.703646    20.344607    7885.4528     7113.455    11274.542    9624.8326    20.894079    601.63628    400.09068   -3623.7395 
30156000    136.61576   -4968.4745   -4704.9995   -4968.4745            0    10296.709    19.594938    19.643436    20.374868    7842.5296    9975.5926    11418.857    9495.6774    208.25589    664.37515    560.93013   -3527.3108 
30157000    132.15159   -4944.7691   -4689.9036   -4944.7691            0    9652.5564    19.598357    19.766778    20.340575    7879.8645    10335.549    8470.6091    10151.511   -434.78311    560.63706     817.1509   -3580.6343 
30158000    130.62161    -4966.882   -4714.9673    -4966.882            0    9338.3599    19.578084    19.764522    20.411542     7898.276    11083.677    7553.5076    9377.8951    -128.6006    710.09078    345.82351   -3639.2979 
30159000    129.86462   -4953.6532   -4703.1983   -4953.6532            0    9193.6579    19.502322    19.719814    20.478036    7875.4876    10887.698    8336.9462    8356.3293   -128.97529    548.49901    1079.5678   -3647.2524 
30160000    140.36555   -4961.9265   -4691.2198   -4961.9265            0    8226.2877    19.590744    19.748426    20.373343    7882.1683    7450.6787    9232.8179    7995.3664     178.0131    172.94768    439.84242   -3745.5805 
30161000    132.17731   -4950.7512   -4695.8361   -4950.7512            0    11146.068    19.505576    19.779806    20.273498    7821.8501    10299.992    12365.001    10773.211   -35.864661    397.15705   -417.29851   -3424.3634 
30162000    136.92432   -4946.1722   -4682.1021   -4946.1722            0    11363.469    19.542552    19.654058     20.41537    7841.3485    12091.912    11224.893    10773.603    -218.8202   -205.69411   -345.57755   -3382.5982 
30163000    136.23016    -4952.128   -4689.3967    -4952.128            0    8584.0204    19.509479     19.73607    20.496233    7891.8789    8018.1198    9124.6615      8609.28    240.92182   -1595.5956    192.53961   -3701.4192 
30164000    135.15245   -4966.2274   -4705.5745   -4966.2274            0    8700.1698    19.586521    19.791542    20.349661    7888.4944    9223.1177    8076.3418    8801.0498   -329.70919   -52.789539    1704.7437   -3704.6583 
30165000    141.38627   -4966.1212   -4693.4459   -4966.1212            0    11215.426    19.531193    19.708405    20.395346    7850.7532    13000.813    10683.476    9961.9892    680.97341     1157.293    283.04912   -3409.3336 
30166000    138.69231   -4957.4185   -4689.9387   -4957.4185            0    8974.1013    19.530904    19.824211     20.42691    7908.9884     7784.405    9427.1386    9710.7602   -431.07709    803.75572    182.54557   -3654.8257 
30167000    137.52387   -4963.2642   -4698.0378   -4963.2642            0    8342.9817    19.593148    19.884963    20.285464    7903.3999    8033.8258    7726.1119    9269.0075   -163.42631   -327.77719    745.55382   -3736.4009 
30168000     137.8146   -4942.2985   -4676.5115   -4942.2985            0    8751.9847    19.583235    19.690648    20.443565    7883.1735    8414.9681    9371.8092    8469.1768   -202.58546    198.34572    223.38712   -3670.3133 
30169000    141.82782   -4952.4684   -4678.9415   -4952.4684            0    9892.0934    19.648196    19.583368    20.514441    7893.5027    9952.8357    9543.7572    10179.687    154.85647   -221.85315   -570.96157   -3540.1771 
30170000    131.34124   -4941.0224   -4687.7197   -4941.0224            0    9941.3241    19.736294    19.691263    20.308553    7892.5649     9339.172     11387.88    9096.9199   -554.99806    475.31899    483.87038    -3543.424 
30171000    138.64192   -4959.1265   -4691.7439   -4959.1265            0    10024.565    19.539895    19.817951     20.43981    7915.1261    11223.277    9432.2125    9418.2041   -405.98312   -754.57901    66.018109   -3534.5683 
30172000    133.39296   -4955.8586    -4698.599   -4955.8586            0     9363.023    19.572384    19.677216    20.405984    7858.9569    8703.6573    10975.558    8409.8541   -208.18941   -576.62664    -8.318179   -3625.4578 
30173000    133.88348   -4969.0937   -4710.8882   -4969.0937            0    8983.6927    19.728146    19.767046    20.288265    7911.7571    7135.2982    9341.5215    10474.258    307.53911    -1781.676    621.42703    -3674.306 
30174000    134.38033   -4946.5175   -4687.3538   -4946.5175            0    9941.1058    19.702689    19.645071    20.248271      7837.31    9769.7697    10010.395    10043.152   -772.93999    1589.7652    909.20396    -3551.094 
30175000     139.1109   -4963.8478   -4695.5607   -4963.8478            0    10096.011    19.533683    19.673773    20.428481    7850.6905    11034.181    9208.6072    10045.246   -251.14081   -1085.2698    1959.6872   -3539.6253 
30176000    137.70559   -4968.6655   -4703.0887   -4968.6655            0    10045.101    19.481515    19.670958    20.462501    7841.6411    10354.928    10780.482    8999.8922     125.8601   -9.3667056    59.933825    -3554.308 
30177000    136.23259   -4953.6342   -4690.8982   -4953.6342            0    9099.1568    19.679909    19.559813    20.455759    7874.1445    8245.7611    10026.049    9025.6604   -385.03575   -471.82252   -414.31265   -3645.9845 
30178000    132.97215   -4952.2332   -4695.7853   -4952.2332            0    9419.0141     19.64965    19.606544    20.443821    7876.2218    9181.4024    11047.717    8027.9227    197.35547   -695.75462    112.95964    -3613.855 
30179000    134.28023    -4937.815   -4678.8443    -4937.815            0    10966.653    19.614919     19.60004    20.511723    7885.7974    10284.913    10810.247    11804.798    413.57757    528.17701    514.52135   -3417.6105 
30180000    140.99279   -4960.3516   -4688.4351   -4960.3516            0    8560.3949    19.546519    19.859991    20.371389    7908.0446    8270.2766    9228.3354    8182.5727   -172.17422    73.259452   -241.90788   -3701.1586 
30181000    136.77798   -4962.1246   -4698.3367   -4962.1246            0    8627.5443     19.55944    19.745562    20.406093    7881.0807    8434.5061    9296.9361    8151.1907   -724.99797   -158.17911    580.70813   -3706.7085 
30182000    133.21444   -4948.0698   -4691.1546   -4948.0698            0    9613.2735    19.506298    19.791154    20.345489    7854.4195    9434.9599    9054.6828    10350.178   -107.73179    1063.1554   -671.17175   -3589.9671 
30183000    131.34425   -4963.0032   -4709.6947   -4963.0032            0    9404.7031    19.473029    19.756005    20.478169    7878.1416    10436.275    8341.2147    9436.6195   -401.12719   -294.09695    46.516765    -3629.145 
30184000    134.92077   -4964.6084   -4704.4023   -4964.6084            0    10092.122    19.571694    19.765368    20.311078    7857.1725    9530.0018    11133.022    9613.3424   -235.19737    183.61328   -272.36677   -3547.9582 
30185000    136.22108   -4948.2241   -4685.5103   -4948.2241            0    10115.781    19.664194    19.737872    20.393636    7915.3686    11721.815    9461.2358    9164.2927   -135.59051   -396.57288   -639.18609   -3517.7695 
30186000    135.08021   -4944.9151   -4684.4015   -4944.9151            0    9415.9494    19.787367    19.896199     20.12366     7922.552    7383.8111    9682.9264    11181.111   -275.13979   -439.85028    954.34504   -3596.4611 
30187000    134.85845   -4964.2592   -4704.1734   -4964.2592            0    7712.8872    19.495475    19.737559    20.526086    7898.2964    8125.5961    8484.3392    6528.7265   -613.06522    493.77827    -1310.105    -3815.737 
30188000    135.77217   -4944.7307   -4682.8827   -4944.7307            0    10016.614     19.35243    19.713616     20.56476    7845.5869    10777.394    9603.3581    9669.0887      259.046   -127.44688    1615.8036   -3536.7834 
30189000     138.4134    -4983.481   -4716.5391    -4983.481            0    7435.7278    19.624971    19.699002    20.490257    7921.3767    6143.7523    9111.9114    7051.5197    150.98227   -82.907147   -647.84609   -3857.5255 
30190000    140.77585    -4943.389    -4671.891    -4943.389            0    9108.2576    19.686772    19.827268    20.174893    7874.9648    9871.6329    8248.1698    9204.9701    159.02907    1108.1514    377.06175   -3625.8232 
30191000     135.5156    -4952.776   -4691.4228    -4952.776            0     9752.687    19.634687    19.824242     20.30122    7902.1038    9833.6884    9387.2592    10037.114   -35.975172     420.3811    1131.7426   -3567.4834 
30192000    143.37341    -4967.389   -4690.8813    -4967.389            0    10530.991    19.717125    19.783915    20.241011    7895.6522    11775.012    8885.7151    10932.244    -495.5959    133.52668   -688.76008   -3478.2378 
30193000    139.75181   -4972.1578   -4702.6346   -4972.1578            0    8119.5572    19.778408       19.734    20.360748    7946.9445    7665.0926    8026.7881    8666.7909   -284.71974    572.73453    71.515973   -3761.5939 
30194000    138.00008    -4956.116   -4689.9713    -4956.116            0    8241.9402    19.730604     19.64835    20.499419    7947.0878    7331.0214     9353.962    8040.8372    103.62174     705.1119    1554.9118   -3734.7294 
30195000    139.24222   -4958.7131   -4690.1727   -4958.7131            0    10465.717    19.752464    19.702342    20.189275    7857.0563    9702.6142    10553.228     11141.31   -578.53928    1061.2421     589.4718   -3490.9364 
30196000    131.23701   -4945.9017   -4692.8001   -4945.9017            0    9670.6318    19.615596    19.729816    20.289697    7852.3582     9623.492    9356.6263    10031.777   -164.70564   -906.19498   -650.24873    -3585.333 
30197000    133.00392   -4938.6441   -4682.1349   -4938.6441            0    10442.434    19.493206    19.653982    20.407126      7818.36    10262.177     10724.28    10340.844    488.45684    537.58431    147.12012   -3491.4597 
30198000    135.87097   -4959.6927   -4697.6541   -4959.6927            0    7842.9099     19.62399    19.863699    20.334697     7926.567     7746.741    8017.9743    7764.0145   -712.48902     813.6777    320.94949   -3791.0071 
30199000    145.64162   -4952.7915   -4671.9094   -4952.7915            0    10721.284    19.643317    19.647315    20.306033    7836.8787    10229.748    11066.168    10867.936   -769.08313    138.38223   -317.36086   -3446.5434 
30200000    132.56719   -4957.3595   -4701.6925   -4957.3595            0    9671.9517    19.675897    19.745542    20.318551    7893.9859    10775.653     8602.914    9637.2884    31.969229     84.39768    608.21957   -3588.2024 
30201000    132.18389   -4956.4987    -4701.571   -4956.4987            0    9310.8042    19.824264    19.622823    20.330021    7908.5413    10120.445    9100.5457    8711.4217    -53.14523   -341.10035   -827.52373   -3627.6818 
30202000    135.46977   -4952.1813   -4690.9164   -4952.1813            0     9978.872    19.508012     19.74803     20.42556    7868.8405    10232.742     9996.455    9707.4189   -466.14092    873.58251    1390.6343   -3545.7514 
30203000     127.2548   -4948.9637   -4703.5422   -4948.9637            0    9299.3035    19.484512    19.745253    20.480896    7879.5461    10440.473    8582.3951    8875.0425    15.065136   -10.912128     452.1474   -3634.9118 
30204000    127.01368   -4958.7173   -4713.7607   -4958.7173            0     8228.369    19.688578    19.759763    20.402664    7937.4858     7514.292    8863.9862    8306.8288    -241.9857    934.90716    90.723818    -3761.244 
30205000    129.67753   -4962.3713   -4712.2773   -4962.3713            0    9043.8638    19.705153    19.687426    20.307574    7878.1964    7758.6668    10944.202    8428.7231     775.6477    1327.2769   -754.81934   -3673.1788 
30206000    136.07767   -4964.7878   -4702.3506   -4964.7878            0    9402.7142    19.582347    19.992494    20.092662    7866.2762    9445.9602    7761.9184    11000.264   -658.36457    1193.6275   -888.87622   -3623.6565 
30207000    132.21656   -4948.8118   -4693.8211   -4948.8118            0    9685.0665    19.592403    19.794983    20.283378    7866.5283    8717.3943    10151.336     10186.47    287.99636     13.56711    157.45686   -3582.6994 
30208000    135.58265   -4947.7893   -4686.3067   -4947.7893            0    10246.586    19.599295    19.793086     20.25736    7858.4484    9896.8151    10522.142    10320.802    515.95123    766.02488   -115.60934    -3511.972 
30209000    137.04822   -4962.5712   -4698.2622   -4962.5712            0    9436.6305    19.620222    19.888745    20.209691    7886.2579    8535.9454    9293.2103    10480.736   -635.64572   -581.40866   -141.77375   -3612.9272 
30210000    141.42666   -4949.3117   -4676.5585   -4949.3117            0    8807.1552    19.533597    19.804518    20.407302    7894.6359    8402.2551     9039.217    8979.9935   -138.92975    882.59989    610.35312   -3662.5452 
30211000    136.62357   -4957.4822   -4693.9922   -4957.4822            0    10343.278    19.590812    19.732668    20.367326    7873.5801    11857.707    9935.8042    9236.3219   -292.31339    263.13314   -1037.2223   -3506.2934 
30212000    136.99971   -4957.9383   -4693.7229   -4957.9383            0    10166.779    19.653327    19.704552    20.365858    7886.8819    9336.6861    11066.628    10097.022    61.701986    625.21157    -727.0676   -3524.3188 
30213000    143.06854   -4963.5846   -4687.6649   -4963.5846            0    8121.9733    19.697716    19.740699      20.3755    7922.9455    6940.7961    10228.733     7196.391    480.32469    496.32567   -235.65132   -3749.1868 
30214000    143.15772   -4969.5715   -4693.4798   -4969.5715            0    9688.6958    19.634107    19.823002    20.325576    7910.8553    9636.0546    9456.6049    9973.4278   -442.40572   -94.845426   -528.29096   -3575.6784 
30215000    131.21922   -4968.4128   -4715.3455   -4968.4128            0    9870.3874    19.526703    19.780679    20.341319    7856.8637     10441.98    8202.2556    10966.926    -357.8317    342.63203   -31.614643   -3584.3541 
30216000    136.10507   -4962.4795   -4699.9895   -4962.4795            0    10626.436    19.612501    19.808039    20.234671    7860.8702    10338.416    10587.024    10953.867   -458.18988   -298.17194    316.25514   -3481.7459 
30217000    132.81422   -4969.2525   -4713.1091   -4969.2525            0    9452.1818    19.605895    19.692131    20.353707     7858.197    8949.7192    9857.1814    9549.6447   -737.22164   -1397.5366    453.06828   -3629.8537 
30218000    136.93045   -4944.5171   -4680.4352   -4944.5171            0     9205.455    19.492502    19.684825    20.439012    7842.5814    10069.836    8779.5211    8767.0076   -719.39428      364.038    631.09971    -3627.552 
30219000    139.81511   -4956.6356   -4686.9904   -4956.6356            0    9962.5602    19.373309    19.805183    20.497564    7864.7499    12045.042    9778.3948    8064.2437   -215.03206   -629.43745   -44.885494   -3544.2917 
30220000    132.54184   -4964.6446   -4709.0265   -4964.6446            0    9764.5027    19.537007    19.780391    20.406929    7886.2505     9646.882    10452.962    9193.6641    275.73602    53.835964    555.70683    -3585.983 
30221000    142.46927   -4981.2381   -4706.4741   -4981.2381            0    8614.5736    19.619125    19.735838    20.465185    7924.1173    8430.6904    8809.2034    8603.8269    140.79599    801.87475   -296.56414   -3710.9299 
30222000    133.05531   -4963.0215   -4706.4132   -4963.0215            0    9253.5859    19.512656     19.69335    20.509353      7881.12    10958.457    8641.9207    8160.3801   -815.44795   -1040.2162     757.2942    -3642.824 
30223000    130.47303   -4951.2828   -4699.6546   -4951.2828            0    9574.0476    19.398959    19.768996    20.520811    7869.6885    9565.5702    10374.234    8782.3389   -851.56292    400.29378     192.4724   -3600.8284 
30224000    131.73481   -4944.5209   -4690.4592   -4944.5209            0    11353.094    19.517952    19.731722    20.356748    7839.8477    10549.627    11532.224     11977.43    266.00324    -227.1032    1023.5621   -3392.3904 
30225000    133.73922    -4965.852   -4707.9247    -4965.852            0    9119.9208    19.719209    19.706583    20.300185    7888.6161    7503.9221    10034.171    9821.6693    68.114496    469.49457    1220.5744   -3658.7017 
30226000     136.4211   -4961.5281   -4698.4285   -4961.5281            0    9399.7424    19.660247    19.709536     20.39911    7904.5396    8268.7836    9842.9347    10087.509   -273.08608    185.35512    687.20066   -3614.8299 
30227000    144.91168   -4947.8464    -4668.372   -4947.8464            0    8832.1656    19.693829    19.855498    20.332616    7950.6785    9247.1479    8840.0671    8409.2818     195.8745   -90.097985    -448.8215   -3644.2604 
30228000    139.05361   -4953.1876    -4685.011   -4953.1876            0    8800.0405     19.58015    19.702774    20.486337    7903.2865    7884.7548    9394.0512    9121.3155   -25.775783    141.59037   -1211.0416   -3670.7066 
30229000    138.38725   -4947.9312   -4681.0398   -4947.9312            0     9287.764      19.5733    19.644075    20.443395    7860.4727    8388.7784    10578.292    8896.2212   -108.25115     331.4706    468.14046    -3616.319 
30230000    139.95741   -4940.3659   -4670.4462   -4940.3659            0    9587.9581    19.620204    19.783555     20.28143    7872.3865    9921.6792    8639.9094    10202.286    169.86052    1177.1479   -1168.8343   -3569.6462 
30231000    137.42025   -4947.1094   -4682.0829   -4947.1094            0    8365.0404    19.503741    19.650132    20.523645    7865.7094    7810.7173    9090.1645    8194.2393    237.04616    537.37419   -273.54433   -3722.5015 
30232000    138.99945   -4953.4961    -4685.424   -4953.4961            0    9820.3012    19.497838    19.643014    20.456745    7834.8578    8978.9266    10829.199    9652.7778   -159.69047   -103.04281    261.77334   -3563.3233 
30233000    135.88606   -4964.4224   -4702.3547   -4964.4224            0    9231.7316    19.602184    19.830427    20.302973    7892.1651    7989.3177    10044.872    9661.0047    239.70895    211.51232   -341.41723   -3639.7904 
30234000    136.07481   -4954.0215   -4691.5898   -4954.0215            0    8224.8699    19.747196    19.880547    20.222159    7938.9177    7824.0587    8509.2365    8341.3144    20.852578   -443.92047    592.59353   -3739.3064 
30235000    133.92614   -4965.1394   -4706.8516   -4965.1394            0     8535.391    19.641072    19.772712    20.274811    7873.8701    7806.4603    8485.6346    9314.0781   -745.76117   -689.97357    316.09464   -3726.7128 
30236000    128.92405   -4955.1605   -4706.5197   -4955.1605            0    9338.7465     19.56416    19.776454    20.408852     7896.383    9197.5712    8859.7103     9958.958   -361.52229   -355.58314   -643.58727   -3631.0636 
30237000    136.85102   -4965.6836   -4701.7549   -4965.6836            0    8132.1355    19.439541    19.897776    20.517918    7936.4051    8766.6141    7659.8621    7969.9302   -195.56573     199.4972   -269.65223   -3760.5063 
30238000     137.5377    -4948.652    -4683.399    -4948.652            0    9681.5798     19.37375     19.77338     20.48444    7847.2718    10849.047    8362.4906    9833.2014    360.87007   -521.80701     30.58382   -3575.3963 
30239000    138.41049   -4963.9132   -4696.9769   -4963.9132            0    8332.4266    19.529523     19.87574    20.377218    7909.6967    8591.5546    7800.6804    8605.0447    148.25612    998.88579    437.07047   -3735.7914 
30240000    138.57628   -4956.8699   -4689.6139   -4956.8699            0    9558.0861    19.511243    19.727551    20.456929    7874.0568    10162.811    8820.3904    9691.0572    519.13518    975.18228   -29.123731   -3592.0106 
30241000    133.89435   -4961.6958   -4703.4693   -4961.6958            0    9065.4055    19.568296    19.553709     20.60973    7885.9579    9438.8634    10501.492    7255.8607    236.01878   -1013.5974   -484.68301   -3660.8696 
30242000    135.82807   -4965.1429   -4703.1871   -4965.1429            0    9492.8261    19.639433    19.802568    20.342832    7911.5552    8888.3005    9591.6783    9998.4996    270.75061    388.73717    1403.1056   -3607.8866 
30243000     141.5846   -4960.5854   -4687.5276   -4960.5854            0    10035.882    19.514277    19.797921    20.421175    7889.5601    9574.2783     10168.74    10364.626   -26.641896   -83.840416    505.50459   -3532.7876 
30244000    145.62536   -4964.6693   -4683.8185   -4964.6693            0    8707.6533    19.529933    19.783215    20.421155    7890.0167     8995.508     9290.853     7836.599   -251.90589    606.68433    174.94005    -3681.848 
30245000    144.77404   -4945.5031   -4666.2942   -4945.5031            0    11233.225    19.640197    19.718143    20.267756    7849.0578    10879.844    12160.831    10659.001   -664.70934   -413.18116    542.20917   -3380.4218 
30246000    146.10983     -4966.13   -4684.3449     -4966.13            0    9652.7784    19.496548    19.813564    20.379566    7872.5469    9223.8927    10281.605    9452.8371   -525.60728    644.90745     996.0032   -3576.0802 
30247000    144.84274   -4975.6101   -4696.2687   -4975.6101            0     8774.856     19.57128    19.857575    20.292876    7886.5859    8713.0173    8943.2916    8668.2591   -213.07232    217.48249   -1476.7512   -3687.0043 
30248000    135.30469   -4943.7406   -4682.7942   -4943.7406            0    9129.5101    19.573096    19.755112    20.380608    7880.5434    8391.2456    10199.377    8797.9071   -595.52024    1126.4495    1338.4064   -3633.5428 
30249000    134.08772   -4964.2753   -4705.6759   -4964.2753            0    8645.0687    19.680857    19.751622    20.306646    7893.7794    9385.6242    6868.8078    9680.7741   -67.676762    658.91123    1212.1388   -3710.4325 
30250000    140.33342    -4944.563   -4673.9182    -4944.563            0    9163.5873    19.796806    19.642339     20.32366    7902.9685     8693.875    10158.853    8638.0339   -142.97895    -688.1136    262.76864   -3617.7534 
Loop time of 349.442 on 64 procs for 250000 steps with 972 atoms

Performance: 123.626 ns/day, 0.194 hours/ns, 715.427 timesteps/s
99.1% CPU use with 64 MPI tasks x 1 OpenMP threads

MPI task timing breakdown:
Section |  min time  |  avg time  |  max time  |%varavg| %total
---------------------------------------------------------------
Pair    | 19.327     | 28.816     | 39.348     |  85.7 |  8.25
Bond    | 0.25625    | 0.27505    | 0.29087    |   1.2 |  0.08
Kspace  | 134.06     | 144.52     | 154.17     |  38.9 | 41.36
Neigh   | 0.96722    | 0.98926    | 1.0023     |   0.8 |  0.28
Comm    | 83.779     | 84.772     | 86.038     |   6.8 | 24.26
Output  | 0.48247    | 0.48336    | 0.48485    |   0.0 |  0.14
Modify  | 83.454     | 84.606     | 85.402     |   5.6 | 24.21
Other   |            | 4.977      |            |       |  1.42

Nlocal:        15.1875 ave          21 max          11 min
Histogram: 1 8 7 6 14 11 8 6 1 2
Nghost:        2345.86 ave        2368 max        2325 min
Histogram: 6 7 3 12 6 3 9 9 5 4
Neighs:        4960.41 ave        7411 max        3296 min
Histogram: 1 8 11 15 12 6 5 3 2 1

Total # of neighbors = 317466
Ave neighs/atom = 326.61111
Ave special neighs/atom = 2.0000000
Neighbor list builds = 2901
Dangerous builds = 0

unfix		3
unfix		2
unfix		1

write_data	data.final.${pid}
write_data	data.final.1
System init for write_data ...
PPPM initialization ...
  extracting TIP4P info from pair style
  using 12-bit tables for long-range coulomb (../kspace.cpp:340)
  G vector (1/distance) = 0.37264104
  grid = 24 24 24
  stencil order = 5
  estimated absolute RMS force accuracy = 0.0034520673
  estimated relative force accuracy = 1.0395798e-05
  using double precision FFTW3
  3d grid and FFT values/proc = 2197 216
Last active /omp style is kspace_style pppm/tip4p/omp
WARNING: Not all mixed pair coeffs generated from mixing. Use write_data with 'pair ij' option to store all pair coeffs. (../write_data.cpp:312)

write_restart   restart.lmp.${pid}
write_restart   restart.lmp.1
System init for write_restart ...
PPPM initialization ...
  extracting TIP4P info from pair style
  using 12-bit tables for long-range coulomb (../kspace.cpp:340)
  G vector (1/distance) = 0.37264104
  grid = 24 24 24
  stencil order = 5
  estimated absolute RMS force accuracy = 0.0034520673
  estimated relative force accuracy = 1.0395798e-05
  using double precision FFTW3
  3d grid and FFT values/proc = 2197 216
Last active /omp style is kspace_style pppm/tip4p/omp
Total wall time: 0:05:49
