LAMMPS (30 Jul 2021)
  using 1 OpenMP thread(s) per MPI task
package omp 0
using multi-threaded neighbor list subroutines
echo both

include		in.partitions
variable        pid world 0
include		in.temp
variable        temperature equal 217.79
variable	tempDamp equal 100.0
include		in.pressure
variable        pressure equal 2250.0
variable        pressureDamp equal 1000.0 # This is 1 ps
include		in.seed
variable        seed world 745823

units		real
atom_style	full
read_restart    restart.lmp.${pid}
read_restart    restart.lmp.0
Reading restart file ...
  restart file = 30 Jul 2021, LAMMPS = 30 Jul 2021
  restoring atom style full from restart
  triclinic box = (-3.2621733 -0.22558045 -0.12918206) to (14.872172 22.805579 19.359180) with tilt (-0.015616396 -6.6967490 0.071043562)
  4 by 4 by 4 MPI processor grid
  restoring pair style lj/cut/tip4p/long/omp from restart
  restoring bond style harmonic/omp from restart
  restoring angle style harmonic/omp from restart
  1008 atoms
  672 bonds
  336 angles
Finding 1-2 1-3 1-4 neighbors ...
  special bond factors lj:    0        0        0       
  special bond factors coul:  0        0        0       
     2 = max # of 1-2 neighbors
     1 = max # of 1-3 neighbors
     1 = max # of 1-4 neighbors
     2 = max # of special neighbors
  special bonds CPU = 0.513 seconds
  read_restart CPU = 0.772 seconds

include 	in.setup
variable	out_freq equal 1000
variable	out_freq2 equal 10000
variable	out_freq3 equal 1000

timestep	2.0

neigh_modify    delay 7 every 1

include		in.tip4p
# This is TIP4P/Ice

# create groups ###
group ox type 2
336 atoms in group ox
group hy type 1
672 atoms in group hy

# set charges - beside manually ###
set group ox charge -1.1794
Setting atom values ...
  336 settings made for charge
set group hy charge 0.5897
Setting atom values ...
  672 settings made for charge

# ### TIP3P Potential Parameters ###
pair_style lj/cut/tip4p/long/omp 2 1 1 1 0.1577 8.5
pair_coeff 1 1*2 0.000 0.000
pair_coeff 2 2 0.21084 3.1668
bond_style  harmonic
bond_coeff  1 450 0.9572
angle_style harmonic
angle_coeff 1 55 104.52
kspace_style pppm/tip4p/omp 1.0e-5
pair_modify tail yes

thermo          ${out_freq}
thermo          1000
thermo_style    custom step temp pe etotal epair emol press lx ly lz vol pxx pyy pzz pxy pxz pyz enthalpy

restart 	${out_freq3} restart.lmp.${pid} restart2.lmp.${pid}
restart 	1000 restart.lmp.${pid} restart2.lmp.${pid}
restart 	1000 restart.lmp.0 restart2.lmp.${pid}
restart 	1000 restart.lmp.0 restart2.lmp.0


include         in.dump
dump            myDump all atom ${out_freq2} dump.water.${pid}
dump            myDump all atom 10000 dump.water.${pid}
dump            myDump all atom 10000 dump.water.0
dump            myDump2 all dcd ${out_freq2} dump.dcd
dump            myDump2 all dcd 10000 dump.dcd
dump_modify     myDump append yes
dump_modify     myDump2 append yes


variable natoms 	equal  "count(all)"                        # NUMBER ATOMS
variable H      	equal  "enthalpy/v_natoms"                 # ENTHALPY-per-atom
variable Vol      	equal  "vol/v_natoms"                 # volume-per-atom
fix AVG all 		ave/time ${out_freq} 1 ${out_freq} v_Vol v_H file vol_enthalpy.dat
fix AVG all 		ave/time 1000 1 ${out_freq} v_Vol v_H file vol_enthalpy.dat
fix AVG all 		ave/time 1000 1 1000 v_Vol v_H file vol_enthalpy.dat



fix 		1 all shake 1e-6 200 0 b 1 a 1
       0 = # of size 2 clusters
       0 = # of size 3 clusters
       0 = # of size 4 clusters
     336 = # of frozen angles
  find clusters CPU = 0.178 seconds
fix             2 all nph tri ${pressure} ${pressure} ${pressureDamp}
fix             2 all nph tri 2250 ${pressure} ${pressureDamp}
fix             2 all nph tri 2250 2250 ${pressureDamp}
fix             2 all nph tri 2250 2250 1000
fix             3 all temp/csvr ${temperature} ${temperature} ${tempDamp} ${seed}
fix             3 all temp/csvr 217.79 ${temperature} ${tempDamp} ${seed}
fix             3 all temp/csvr 217.79 217.79 ${tempDamp} ${seed}
fix             3 all temp/csvr 217.79 217.79 100 ${seed}
fix             3 all temp/csvr 217.79 217.79 100 745823


run             250000
PPPM initialization ...
  extracting TIP4P info from pair style
  using 12-bit tables for long-range coulomb (../kspace.cpp:340)
  G vector (1/distance) = 0.38268408
  grid = 24 30 36
  stencil order = 5
  estimated absolute RMS force accuracy = 0.0020030698
  estimated relative force accuracy = 6.0321851e-06
  using double precision FFTW3
  3d grid and FFT values/proc = 4320 480
Last active /omp style is kspace_style pppm/tip4p/omp
Neighbor list info ...
  update every 1 steps, delay 7 steps, check yes
  max neighbors/atom: 2000, page size: 100000
  master list distance cutoff = 10.8154
  ghost atom cutoff = 10.8154
  binsize = 5.4077, bins = 5 5 4
  1 neighbor lists, perpetual/occasional/extra = 1 0 0
  (1) pair lj/cut/tip4p/long/omp, perpetual
      attributes: half, newton on, omp
      pair build: half/bin/newton/tri/omp
      stencil: half/bin/3d/tri
      bin: standard
Per MPI rank memory allocation (min/avg/max) = 9.352 | 9.359 | 9.366 Mbytes
Step Temp PotEng TotEng E_pair E_mol Press Lx Ly Lz Volume Pxx Pyy Pzz Pxy Pxz Pyz Enthalpy 
19000000    217.31236   -4876.7262   -4442.0746   -4876.7262            0    3305.0368    18.134346     23.03116    19.488362    8139.4121    2334.8381    4102.3612    3477.9111   -710.63753    1175.6938    382.47474   -4049.7503 
19001000    210.39492   -4903.0369    -4482.221   -4903.0369            0    1993.6188    18.199874     22.92195    19.481316    8127.1491     988.1265    2000.8898      2991.84   -1658.5168   -176.99903   -725.83901   -4245.9251 
19002000    215.03708   -4903.1984   -4473.0977   -4903.1984            0    3066.8642     18.32481    22.683502    19.614058    8152.9928    2928.2939    3869.2478     2403.051    87.992411    433.85846   -69.538661   -4108.4382 
19003000    207.25026   -4891.2924   -4476.7663   -4891.2924            0    3913.4413    18.034061    22.802317    19.667813    8087.7664    4508.4253    3927.3133    3304.5853   -890.21333    670.97231    338.00859   -4015.1689 
19004000    211.80727   -4936.6631   -4513.0224   -4936.6631            0    1027.7434    18.086428    23.322536    19.329741    8153.6981    1197.4709    256.19423     1629.565   -196.03719   -596.85309   -773.75908     -4390.81 
19005000    212.19348   -4899.4698   -4475.0567   -4899.4698            0    1078.4375    18.131186    23.328811    19.304836    8165.5406    1616.3236   -179.98234    1798.9712   -123.30258   -24.226799    906.95956   -4346.6298 
19006000     223.7322   -4902.6808   -4455.1888   -4902.6808            0    4198.6829    18.088313    22.679295     19.64779    8060.1167    4570.4755    4962.3433    3063.2299   -129.75367    765.89242   -337.28058   -3961.6397 
19007000    212.35208   -4902.0513   -4477.3209   -4902.0513            0    2724.9338     18.32896    22.731512    19.477561    8115.2282    2302.3385    3690.6557    2181.8072    -941.9342   -248.88296   -875.44113   -4154.8188 
19008000    219.62566   -4908.1843   -4468.9058   -4908.1843            0    1614.2082    18.221915    23.088351    19.331638    8133.0902    2049.5719    718.01597    2075.0368    762.47452    761.97604    685.73426   -4277.4401 
19009000     219.5485    -4887.983   -4448.8588    -4887.983            0    3063.3318    18.070474    22.989181    19.518133    8108.3285     3722.883    2762.1739    2704.9386   -213.86339   -542.56136     418.1048   -4086.6148 
19010000     209.5402   -4879.2748   -4460.1685   -4879.2748            0     2315.036    18.193953    23.011815    19.434804    8136.8834    2247.2216    2439.6801    2258.2064    2.0976443    176.24551    1679.9648   -4185.4476 
19011000    214.72032   -4910.8377   -4481.3706   -4910.8377            0    3130.7011    18.282372    23.005767    19.269698    8104.8343     1615.105    2516.2299    5260.7683   -612.09073    100.57219     2237.296   -4111.3195 
19012000    226.98143   -4889.1038   -4435.1129   -4889.1038            0    465.15718    18.317567    22.924377    19.495494    8186.5246   -240.06217    1114.9835    520.55023    -783.6906   -111.45674   -1858.7956   -4379.5768 
19013000    236.00997    -4918.269   -4446.2199    -4918.269            0    2520.8412     18.06926    23.038783    19.466641    8103.8411    2740.9471    1772.8059    3048.7706    508.79965    -287.7605    -132.5518   -4148.2913 
19014000    219.88477   -4919.6087    -4479.812   -4919.6087            0    3709.0069    18.151494    22.966455    19.379949    8079.0253    2310.9736    4054.4494    4761.5976    1140.7397   -24.339931   -11.945279   -4042.8009 
19015000     210.9657   -4896.2256   -4474.2682   -4896.2256            0    2576.5987    18.082522    22.978311    19.523449    8112.1067    4033.8675     2528.571    1167.3575     1394.823   -270.59448    2365.9982   -4169.4392 
19016000    222.03631   -4912.9043   -4468.8042   -4912.9043            0     1470.663    18.217723    22.999458    19.431521    8141.7641    1367.2633    1064.8172    1979.9086   -217.91368   -499.71419    513.80161   -4294.1788 
19017000    220.85682   -4923.4796   -4481.7387   -4923.4796            0    1947.2133    18.317403    22.927603     19.40256    8148.5735    2673.4739     1603.553    1564.6131    436.47606   -765.96368   -662.80418   -4250.3346 
19018000    215.66372   -4923.4435   -4492.0894   -4923.4435            0    2343.2445    18.175967    22.825167    19.566476    8117.5337     2094.703    3204.0043    1731.0264     -791.957    -12.05714   -1005.2734   -4214.6823 
19019000    206.52077   -4891.9689   -4478.9018   -4891.9689            0    669.88138    18.125604    23.186631    19.477804    8185.9697    269.00592     973.9946    766.64362    196.92014    1003.4819    242.26807   -4398.9287 
19020000    218.76639   -4916.0759   -4478.5161   -4916.0759            0    2921.1792    18.113973    23.155479    19.282372    8087.7542     3938.213    2381.5594    2443.7653   -1407.5689   -537.19983     -1318.04   -4133.9583 
19021000    204.02198   -4903.8463   -4495.7771   -4903.8463            0    3580.2785    17.991691    23.150781    19.400443     8080.705    4359.5466    2438.3128    3942.9759    393.58748    373.55768   -247.49397   -4073.8456 
19022000    227.84818   -4931.4911   -4475.7666   -4931.4911            0    2737.4605    18.239799    22.804469    19.505547    8113.3116    2954.8323    2417.4295    2840.1197    -773.7209    497.26444   -194.53282   -4151.8584 
19023000    209.03951   -4913.0156   -4494.9107   -4913.0156            0    204.24598    18.316202    22.766611     19.61771    8180.5429    2.7765586    1160.6906   -550.72918    305.49126    -167.3332    1333.7497   -4470.5432 
19024000     232.9953    -4900.714   -4434.6946    -4900.714            0    1465.7315    18.124536    23.014539     19.59145    8172.1394    1696.4134    748.69759    1952.0836   -2078.6454    557.46746    76.499842   -4260.0054 
19025000    222.09027   -4893.0722   -4448.8642   -4893.0722            0    2407.0164    18.038165    23.298413    19.359065    8135.8529    3003.4826    1718.7411    2498.8254     431.2496   -452.31316    1117.2337   -4163.2644 
19026000    219.92323   -4897.7897   -4457.9161   -4897.7897            0    1636.9127    18.169113    23.187724    19.360714     8156.676    1483.5223    1464.2196    1962.9961    867.43946    199.36398    626.57931   -4263.1943 
19027000    222.56979   -4895.9945   -4450.8274   -4895.9945            0      1616.91     18.22757    22.850785    19.618437    8171.3593    2251.8995     1892.846    705.98453    256.02619   -380.73002    1837.1528   -4258.1388 
19028000    216.67396   -4922.4653   -4489.0906   -4922.4653            0    2013.4366    18.249086    22.855361    19.531339    8146.3155    864.56806     2734.405    2441.3366   -287.83811    104.91114    264.26105    -4249.883 
19029000    223.95656   -4921.5821   -4473.6413   -4921.5821            0    2544.6778    18.161577    22.973412    19.435233    8109.0281    1390.7018    3367.1725    2876.1591    399.08261    1089.2267    426.98706    -4172.703 
19030000    218.22582   -4885.7009   -4449.2223   -4885.7009            0    2078.8798    18.214326    22.938144    19.479701    8138.6745    1568.4836    2010.9555    2657.2003   -341.59457    200.18789   -808.06368   -4202.4713 
19031000    220.30239   -4888.9996   -4448.3676   -4888.9996            0    1163.1254    18.167523    23.067497    19.538081    8188.0051    846.87222    1557.1582    1085.3458    1450.5875   -286.28659    2409.8242   -4309.4746 
19032000     218.6244   -4897.4011   -4460.1253   -4897.4011            0    3191.6156    18.214948    22.845569    19.397164    8071.7582    2836.9781     3642.867    3095.0018    1293.5619     -729.088   -585.35621   -4084.4137 
19033000     214.2666    -4900.759   -4472.1993    -4900.759            0    2587.3418    18.271899      22.7957    19.480603    8114.0749    3227.4254    2635.7199      1898.88   -986.27102    601.44485   -603.36607    -4166.025 
19034000    216.51228    -4932.001   -4498.9497    -4932.001            0    2672.3314    18.103664    23.063094    19.446739    8119.5288     3728.847     727.9776    3560.1696   -557.80602   -1449.3439   -1882.2155   -4182.5056 
19035000    210.04446   -4929.5887   -4509.4738   -4929.5887            0    2527.1485    18.189713    23.087843    19.288959    8100.6152    1954.9184    1829.5216    3797.0054   -1508.7453   -1212.2185   -663.35084   -4210.9186 
19036000     217.9459   -4934.1075   -4498.1887   -4934.1075            0    1702.6582    18.045065    22.817571    19.717683    8118.6484    3290.8258    2160.0606   -342.91178   -1283.7495   -495.82381    -55.86474   -4296.5903 
19037000    218.98668   -4909.5642   -4471.5637   -4909.5642            0    3407.3628    18.260388    22.735717    19.501106    8096.1379    3123.0249    4119.8734      2979.19   -984.85857   -831.84986   -592.28665   -4069.2433 
19038000    211.54197   -4896.9567   -4473.8466   -4896.9567            0    1981.0985     18.25365    23.035726    19.398338    8156.7316    1970.0567    2196.2969    1776.9418    541.40807    271.22926   -658.32028     -4238.18 
19039000    223.11181    -4928.715   -4482.4639    -4928.715            0    2004.3163    17.899391     23.24309    19.493665    8110.0888     2583.679    2840.1573    589.11261    132.82852   -140.04192    130.87889   -4245.3987 
19040000    215.45377   -4897.5994   -4466.6652   -4897.5994            0    1473.0659    18.281909    22.994271    19.477468     8187.922    878.33888    563.78257    2977.0762   -367.85453   -207.37016   -1086.1511   -4290.7628 
19041000    215.22879   -4900.1132    -4469.629   -4900.1132            0    461.10622    18.378192    22.739926    19.547172    8169.1293    566.11246    841.77209   -24.565895     46.38129    728.71714    487.37584   -4414.6935 
19042000    222.53884   -4920.7907   -4475.6855   -4920.7907            0    2774.7068    18.120669    22.971391    19.425252    8085.8964    863.00937    2955.9716    4505.1393   -102.83287    152.86793     550.5842   -4148.4796 
19043000    220.59173   -4892.1832   -4450.9725   -4892.1832            0    3584.1569    17.843363    23.359798    19.395485    8084.3749    4803.4595    2518.5088    3430.5023   -506.22735    85.440917   -228.40639   -4028.3921 
19044000      214.341   -4928.4736   -4499.7651   -4928.4736            0    3667.4224    18.213214    22.913074    19.391035    8092.2806    3222.3665    3430.6633    4349.2373    789.72049   -35.453304   -1048.2372   -4066.9447 
19045000    211.06051   -4927.0368   -4504.8897   -4927.0368            0    1873.8044    18.403686    22.739693    19.496999    8159.3808    495.90979    2113.1322    3012.3712    464.01143    540.19881    869.40004   -4281.9141 
19046000    207.88156   -4909.4117   -4493.6229   -4909.4117            0    1600.5488    18.152802    23.066713     19.50334    8166.5454    2685.0737    701.04106    1415.5316   -853.99573    933.56516   -2537.3242   -4302.9965 
19047000    222.02179   -4922.0237   -4477.9527   -4922.0237            0    1449.6378    17.980034    23.179441    19.521141    8135.7699    2299.5784    672.74849    1376.5866    22.515485   -278.78816   -190.19291   -4305.9505 
19048000    216.37105   -4927.2409    -4494.472   -4927.2409            0    1719.9806    18.260332    22.992946    19.392513    8142.1177     749.1219    1661.2184    2749.6014   -873.60991   -937.01411    911.64851   -4290.2339 
19049000    219.83408   -4898.2544    -4458.559   -4898.2544            0    1563.8236    18.375571    22.964378    19.333945    8158.6064   -42.469045    1064.7476    3669.1921    186.26615   -276.85698    1092.1113   -4272.4876 
19050000    205.10011   -4914.2431   -4504.0176   -4914.2431            0    2111.9424    17.975138    23.078653    19.589374     8126.495    2930.3134    1320.8972    2084.6165   -923.64673   -293.09943   -602.24344   -4253.7174 
19051000     231.8499   -4883.9665   -4420.2381   -4883.9665            0    448.56401    18.119488    23.185187    19.520699    8200.7183    1446.4161   -1165.1059    1064.3819     942.7871   -1500.9546    237.10315   -4366.5902 
19052000    210.20447   -4924.8349      -4504.4   -4924.8349            0    1756.0458    18.298428     22.95826    19.380522    8141.7583   -522.99401    2926.0035     2865.128   -694.13551   -463.97439    -1959.104   -4295.8886 
19053000    209.25614    -4924.646   -4506.1079    -4924.646            0    3110.5307    18.359713    22.616311    19.449167    8075.8576    784.59188    3623.9464    4923.0538    1215.7545   -1090.2483    2218.1672   -4139.7555 
19054000      223.049   -4891.3652   -4445.2396   -4891.3652            0   -3.4391024    18.200907     23.03037    19.645368    8234.8199    180.63032     468.7184   -659.66603   -279.35738    449.00587    -288.7845   -4445.6526 
19055000    228.82137   -4918.4525   -4460.7815   -4918.4525            0    2059.3737    18.143951    23.095744    19.466708    8157.4863    2013.4304    1885.1086    2279.5822   -445.96874     27.22309   -376.59212   -4215.7808 
19056000    229.57138   -4892.9095   -4433.7384   -4892.9095            0    3204.2562    18.154165    22.909476    19.510307    8114.3835    2643.5969    3762.6598    3206.5119    163.89907   -90.154663    784.94863   -4054.5468 
19057000     208.6331   -4923.8057   -4506.5138   -4923.8057            0    1135.8048     18.25905    22.930895    19.572813    8195.0654    128.16741    1853.0279     1426.219    -1202.442    1192.1842   -237.93179   -4370.7662 
19058000    213.88881   -4901.0412   -4473.2372   -4901.0412            0    2888.2724    18.384105    22.869288    19.333312     8128.331    650.11544    2623.1601    5391.5417   -94.562298    573.35474    1977.8875   -4130.8516 
19059000     215.2405   -4909.7096    -4479.202   -4909.7096            0    2808.2255    18.193981    22.817469    19.547816     8115.092    2120.5604    3201.9228    3102.1933    91.607182   -15.791687    -3861.933   -4146.8477 
19060000    228.47676   -4933.7617   -4476.7799   -4933.7617            0    2037.9155    18.100897    22.975016    19.520656    8118.0236    2329.4344    1833.2756    1951.0363    756.23735   -516.90325    132.11213   -4235.5049 
19061000    214.38719   -4877.7131   -4448.9122   -4877.7131            0    1571.8137    18.187889    23.087157    19.469357    8175.3125    3156.8841    473.96412    1084.5929   -958.34553   -911.98009    148.93141   -4261.5071 
19062000    237.59186   -4906.2758   -4431.0628   -4906.2758            0    1368.0081    18.027054    23.110518    19.607534     8168.784     1987.243    1139.7944    976.98672   -2548.1334   -52.487004   -1580.3447   -4268.0874 
19063000    227.87063   -4903.5679   -4447.7984   -4903.5679            0    1715.2773    18.227623    23.054544    19.412654    8157.7708    2283.5607     1362.827    1499.4441   -218.89793   -585.96813    1085.4475   -4243.7272 
19064000     218.6793   -4917.4196    -4480.034   -4917.4196            0      1277.43    18.152707    22.732895    19.828904    8182.6665    1916.5287    1469.1702    446.59102   -16.711768   -817.75809   -1106.9809   -4327.5908 
19065000    212.78364   -4922.0147   -4496.4212   -4922.0147            0    4126.5043     18.14526    22.702237    19.571946    8062.4285    5570.8463    3879.3102    2929.3565   -1037.3596   -534.17793   -231.28882   -4011.2175 
19066000    219.52319   -4881.0715    -4441.998   -4881.0715            0    1506.1967    18.249385    23.067151    19.417872    8174.1733    2408.9835   -428.33922    2537.9457     907.1686   -1644.2029   -1189.0511   -4262.4414 
19067000    215.22503   -4915.5956   -4485.1189   -4915.5956            0    1768.4734    18.171614    23.188208    19.348247    8152.7159    1359.4308    1313.5508    2632.4385    1387.6519   -266.69601     949.7747   -4274.8492 
19068000    225.28813   -4923.7919   -4473.1878   -4923.7919            0    2658.3888    18.161937    22.841625    19.540271    8106.2454    3226.1385    3079.3657    1669.6623    557.14632    624.44392   -242.12354   -4158.9097 
19069000    214.99251   -4937.6589   -4507.6473   -4937.6589            0    1900.9661     18.36106    22.698058    19.507686    8130.0312   -364.24047    3819.0219    2248.1168   -7.9493686    368.52975    1824.6459   -4282.2533 
19070000    224.07731   -4918.7991   -4470.6168   -4918.7991            0    2090.0034    18.147827    23.185052    19.277925    8111.3473    831.52446    1696.0917     3742.394   -1733.7892    141.08369     78.29117   -4223.3785 
19071000    209.68632     -4894.85   -4475.4514     -4894.85            0    1721.9871    18.058871    23.225077    19.451801    8158.4484    791.38022    1967.3705    2407.2105    1257.2517    66.871313    2147.5027   -4270.5649 
19072000    226.43534   -4884.9704   -4432.0718   -4884.9704            0     2073.511    18.321308     22.97358    19.466811    8193.6979    930.63814     1570.923    3718.9718   -1448.5384   -831.60606   -291.54399   -4184.2941 
19073000    213.77298   -4938.3055   -4510.7331   -4938.3055            0    2378.4094    18.238607    22.588565    19.656438     8098.137    2425.2857    3329.2138    1380.7287   -495.23484   -478.21278   -387.24093   -4229.8358 
19074000    199.70972   -4907.4162   -4507.9721   -4907.4162            0    3769.0557    18.200397    22.859338    19.423082    8080.9543    3850.0707    3926.7504     3530.346   -752.02755   -467.12718    917.74305   -4063.7797 
19075000      217.344   -4919.1642   -4484.4494   -4919.1642            0    4061.3845    18.212228     23.03011    19.259854     8078.153    3151.1736    2300.3171    6732.6629   -747.70562    743.79542    400.78883   -4005.9713 
19076000    218.56426   -4901.3421   -4464.1866   -4901.3421            0    3145.5719    18.127756    22.904987    19.577434    8128.8643    4292.0392    3129.5496    2015.1268    747.87611    627.15219    1036.2154   -4091.2755 
19077000    200.81231   -4921.4662   -4519.8168   -4921.4662            0    1666.6442    18.102728    23.001913     19.49166    8116.2764    460.83955    2963.2746    1575.8184   -356.24673    1065.6122    1065.6146   -4322.5401 
19078000     225.7395   -4886.2428   -4434.7359   -4886.2428            0    948.95984    18.206899    23.089135    19.475897    8187.3078    488.09393    815.87812    1542.9075    1436.4757   -398.81482     474.2706   -4321.4268 
19079000    215.59039   -4912.8649   -4481.6574   -4912.8649            0    2088.7173    18.244765    22.930558    19.418996    8124.1826    2759.4592    1644.8426    1861.8502    408.52041   -640.07264   -157.59404   -4234.1802 
19080000    228.14783   -4900.5106   -4444.1868   -4900.5106            0    3035.3667    18.049172    22.726616     19.74864    8100.8248    1725.4646    4454.9654    2925.6701   -533.30544    690.22874    455.06126   -4085.5818 
19081000    227.43494   -4922.1777   -4467.2798   -4922.1777            0    4471.5923    18.075475    22.888021    19.493713    8064.7798    6061.2579    4656.1616    2697.3573    847.71781    408.82148    2141.3114   -3941.3465 
19082000    217.37327   -4935.6812   -4500.9078   -4935.6812            0     3440.264    18.153655    22.997019    19.338511    8073.4405    3576.4696    3396.1888    3348.1335   -1642.7527   -264.20219    916.76137   -4095.8413 
19083000     224.6078   -4905.1276   -4455.8842   -4905.1276            0    2469.3735    18.093844    23.031654    19.512656    8131.5317    3227.7909    1947.1029    2233.2267    130.57304    48.135041    806.11582   -4163.0411 
19084000    220.77261   -4888.6822   -4447.1097   -4888.6822            0    1297.5313    18.180681    22.731058    19.730868    8154.0989    2534.7989    1225.8122    131.98271   -577.87751   -1022.6559     384.8214   -4292.8083 
19085000    212.91219   -4920.6101   -4494.7594   -4920.6101            0      3451.11    18.111143    22.905049    19.528118    8100.9781    3090.3861    4072.8496    3190.0942    -891.7991    902.45686    919.24067   -4087.0299 
19086000    219.99935   -4927.2682   -4487.2423   -4927.2682            0    1997.8161       18.193    23.051235    19.352143    8115.7299    1014.8038    2101.2101    2877.4343   -22.015458    86.159658    647.55821   -4250.7816 
19087000      217.436   -4922.2541   -4487.3552   -4922.2541            0    2446.7388    18.080663    23.155486     19.46461    8149.1811    3942.0702    1332.2486    2065.8976   -1036.1256    770.15581   -1249.0757   -4196.5665 
19088000    217.56073   -4909.8338   -4474.6855   -4909.8338            0    2481.8433    18.122115    23.063619    19.446095    8127.7199     3507.354    1844.7181    2093.4578   -264.43419   -571.70671   -1125.4798   -4180.5015 
19089000    219.62071   -4956.0156   -4516.7471   -4956.0156            0    4939.9703    18.178062    22.594839    19.547073     8028.577    4877.3528    5410.2414    4532.3166    766.89047     716.7076    1807.6175    -3938.333 
19090000    217.19965   -4918.1699   -4483.7438   -4918.1699            0    3631.8818    18.159281    22.827226    19.446993    8061.2847     3475.816    4200.8637    3218.9656    36.897957    573.10717   -612.52691   -4056.7595 
19091000    209.68654   -4912.0325   -4492.6336   -4912.0325            0    369.82119    18.263397    23.061795    19.486946     8207.643   -691.66705    1182.2404    618.89022    1656.7469    305.76275    1432.4722   -4448.3659 
19092000    218.57212   -4921.7331   -4484.5619   -4921.7331            0    3537.0209    18.132799    23.016027    19.348054    8074.8134    3307.3524    4365.6679    2938.0423   -415.24644   -539.28864    -535.8873   -4068.0321 
19093000    223.82585   -4903.3735   -4455.6941   -4903.3735            0    595.15881     18.04181    23.176838    19.600703     8196.075    377.95091    1120.4506    287.07488   -173.44106   -1.0749259    482.56024    -4384.554 
19094000    221.10749   -4919.1429   -4476.9006   -4919.1429            0    1914.6871    18.082262    23.043172    19.509621    8129.1259    2291.1897    2254.8001    1198.0716   -297.78445    72.192701   -922.29102   -4249.9049 
19095000    213.83216   -4947.0977   -4519.4069   -4947.0977            0    2501.0367    18.275164    22.908935     19.33371    8094.3388    2245.6697    2440.3057    2817.1347    -741.6052   -803.73939    886.40446   -4224.1655 
19096000    218.43893   -4904.2371   -4467.3322   -4904.2371            0    2609.7742    18.261332    22.710242    19.592683    8125.4632    2919.3717    3019.6893    1890.2616    638.07021    545.59823    19.008355   -4158.0699 
19097000    207.53319   -4897.3339   -4482.2419   -4897.3339            0    4362.2637    18.161406    22.877087    19.423207     8069.955    3840.1629    4173.1366    5073.4916   -1626.1859    1218.1529   -878.34015   -3968.8383 
19098000    215.77897   -4906.6805   -4475.0959   -4906.6805            0    3176.5312    18.214357    23.177328    19.272225    8135.9652    3006.4924    2409.2708    4113.8304   -989.07539    1471.5566    890.72377   -4098.1855 
19099000    221.75693   -4932.5301   -4488.9889   -4932.5301            0    1916.5349    18.112225    23.067996    19.414242    8111.5177     2103.699    1737.1147    1908.7909    205.21167   -461.08014   -137.97224   -4262.2663 
19100000    220.79128   -4919.9674   -4478.3575   -4919.9674            0    3215.5807    18.198532    22.802859    19.491826    8088.6896    3224.7705    3795.1232    2626.8483    1149.2059    393.04819    775.22062   -4099.0308 
19101000     202.9822   -4920.4277   -4514.4382   -4920.4277            0    3167.3866     18.35142    22.590946    19.564053    8110.7858    1808.0093    3449.7204      4244.43   -1195.2473   -943.95731   -1019.1629    -4139.776 
19102000    222.84642   -4917.6435   -4471.9231   -4917.6435            0     2019.101    18.112187    23.162882    19.281357    8089.1164    1108.0794    1506.1251    3443.0985   -106.35375    -679.6451   -634.61137   -4233.7268 
19103000    222.27727   -4908.2468   -4463.6648   -4908.2468            0    2220.6465    18.037559    23.172998    19.396416    8107.3979    1708.3334    2796.5129    2157.0933     135.7113    637.40883    421.36109   -4201.0998 
19104000    222.08575   -4910.5614   -4466.3625   -4910.5614            0    2494.4321    18.103258    22.801982    19.633115    8104.3566    2403.1158     3547.162    1533.0185    641.96356    803.42284    45.458192   -4171.5363 
19105000     224.1266   -4885.7242   -4437.4433   -4885.7242            0    2667.6831    18.291371    22.705141    19.608616    8143.6182    429.90112    4291.7131    3281.4352     664.8496    57.947561    378.59171   -4120.6124 
19106000    204.68859   -4916.4852   -4507.0827   -4916.4852            0    936.37331    18.292613    23.252274    19.270516    8196.6148    -867.8864   -599.85643    4276.8628   -456.85249   -505.39991    744.26176   -4395.1494 
19107000    219.07689   -4907.2157   -4469.0348   -4907.2157            0     1998.612    17.893626    23.277466    19.535798    8137.0168    3960.1335    8.9002941    2026.8021    383.50295   -683.23891    416.05663   -4231.8594 
19108000    226.15405   -4918.6057   -4466.2696   -4918.6057            0    802.93256    18.222935    22.841187    19.676091    8189.8477     646.0869    1259.9169    502.79389    312.92645    696.54106    165.55723   -4370.3669 
19109000    212.43061    -4909.451   -4484.5635    -4909.451            0    1889.5497    18.403368    22.799506    19.461878    8165.9645    2333.2797    1296.3905    2038.9788    -158.0148    -826.1834   -712.62645   -4259.5329 
19110000     222.1356   -4903.9707    -4459.672   -4903.9707            0    2793.2744    18.132224    23.010432    19.382252    8086.8629    3217.3245     2602.922    2559.5768   -366.05956    1175.9052    934.91304   -4130.2371 
19111000    225.43629   -4890.8558   -4439.9554   -4890.8558            0    2802.2881    17.912071    23.379725    19.430698    8137.1737    3977.9209    1391.7591    3037.1843    13.375433     418.4212   -178.17973   -4107.4013 
19112000    218.45084   -4909.7102   -4472.7815   -4909.7102            0    3549.4552    18.019117    22.995775    19.561685    8105.6494    2920.3081    3733.9464    3994.1112   -322.58814   -379.49338     280.3056   -4053.1913 
19113000    216.19796   -4922.7115   -4490.2888   -4922.7115            0    3541.6316    18.279495    22.674725    19.411231    8045.6163    2957.2511    3807.7533    3859.8904   -261.26376   -310.78371   -779.12918   -4074.7242 
19114000    220.28503   -4898.9703    -4458.373   -4898.9703            0    2258.6876    18.323545    22.902223     19.43491    8155.8581     3136.343    1287.3806    2352.3393   -150.46976   -175.02928    1056.8425   -4189.7138 
19115000    214.80488   -4905.1052   -4475.4689   -4905.1052            0    1984.8848    18.112966    23.267788    19.375485    8165.7723   -143.65776    2790.2044    3308.1077   -1334.0368    557.76289   -2015.5432   -4239.0901 
19116000      212.135   -4927.7682    -4503.472   -4927.7682            0    2012.3687    18.094516    23.138522    19.365851    8108.1013     3893.891    742.49136    1400.7239   -340.93024   -1222.4424    2050.2473   -4265.5127 
19117000    214.82842   -4936.4915   -4506.8081   -4936.4915            0    436.25877    18.260066     22.86036    19.633801    8195.7706    635.34874    1391.2756   -717.84804    528.21088    559.85681   -236.55443   -4454.6634 
19118000    203.66987   -4906.9105   -4499.5456   -4906.9105            0    3074.5571    18.220079    22.772495    19.482731    8083.7095    2391.8361    3624.5491     3207.286   -220.84389    121.19532   -560.60423   -4137.0781 
19119000    214.98829   -4927.3073   -4497.3042   -4927.3073            0    2135.7433    18.203606    23.035569    19.355223    8116.2337    1212.5359    1587.7086    3606.9853   -464.56299    171.96127    285.14572   -4244.5028 
19120000    206.77694   -4895.9966   -4482.4172   -4895.9966            0    1205.0133    18.106853    23.246774    19.455238    8189.2139      1671.41    613.48706    1330.1429    342.55088    286.97176   -261.45387   -4338.5009 
19121000    218.43319   -4927.0198   -4490.1264   -4927.0198            0    1892.2854     18.33741    22.851613     19.43692    8144.8351    2716.3088    2144.0654    816.48196   -656.81548   -130.88047     -862.428   -4265.3531 
19122000    223.84002   -4897.7098   -4450.0021   -4897.7098            0    2015.2937    18.269696    22.793913    19.589225     8157.695    613.05742    3441.4053    1991.4182    516.39116    783.74562    683.92363   -4210.2393 
19123000    210.65674   -4903.0954   -4481.7558   -4903.0954            0    2752.8862    18.102055     22.95959    19.522236     8113.749    2475.6487    2603.3098    3179.7003    568.71953   -495.41575    845.14091   -4156.0049 
19124000     229.3955   -4927.1736   -4468.3542   -4927.1736            0    1047.9103    18.207422    23.077125    19.461011    8177.0296    1071.3258    245.80138    1826.6036   -2515.8024   -763.11977    -2715.376   -4343.3872 
19125000    219.75131   -4891.8686   -4452.3389   -4891.8686            0    1859.2027    18.189834    22.964435    19.577214    8177.7796    3059.4757    2583.7098   -65.577414    559.26524    413.84615    770.87648    -4230.602 
19126000    222.92892   -4935.3953   -4489.5099   -4935.3953            0    1376.1246    18.178605     22.91451    19.611725    8169.3388    1444.2509    1312.5211    1371.6017   -938.32127    418.63247   -1326.3028   -4325.5565 
19127000    208.91369   -4909.0139   -4491.1607   -4909.0139            0    1490.6671    18.167408    22.963663    19.533515    8149.1917    1446.3176    1849.1444    1176.5392    398.65879    1172.6581   -776.17798   -4313.9985 
19128000    212.72974   -4915.3258   -4489.8401   -4915.3258            0    1527.7977     18.06857    23.391632    19.248005    8135.2337    2134.1295    919.72329    1529.5402    350.61235    650.58556   -105.54376    -4308.576 
19129000    235.37531   -4905.9664   -4435.1867   -4905.9664            0    2251.8428    18.194996    22.939662    19.464185    8124.0991    1227.7281    2923.6839    2604.1162    907.68282    1140.1684    362.38137   -4168.3846 
19130000    213.06549    -4935.034   -4508.8767    -4935.034            0    3511.8903    18.151828    22.841128    19.529177     8096.957    4479.5612    3412.6912    2643.4184    -1412.147     178.1185    2251.3422   -4094.1723 
19131000    209.34757   -4930.0481   -4511.3271   -4930.0481            0    2218.1282    18.107482    23.002168    19.525439    8132.5669    1905.4523    2859.2234    1889.7088   -290.22547    1078.6298    2319.2895   -4248.2456 
19132000     219.9273   -4892.3841   -4452.5023   -4892.3841            0    1217.4377    18.213466    23.035124    19.417361    8146.5431    792.35819    1180.7853    1679.1695    488.18451   -416.90832   -803.19077   -4307.8598 
19133000    222.88356   -4903.6406    -4457.846   -4903.6406            0     1794.308     18.28805     23.01078    19.437711    8179.8218    1365.9375    1612.5367    2404.4498    591.77054   -444.24184    1149.2901   -4243.7952 
19134000    208.63298   -4910.0846   -4492.7928   -4910.0846            0    3349.4813    18.191941    22.839719    19.455175    8083.6025    2466.6018    3836.8675    3744.9747    -1063.681   -1011.1137   -482.11652    -4097.919 
19135000    213.52647   -4915.5565   -4488.4772   -4915.5565            0    2962.7147    18.159201    22.805764    19.526896    8086.7606    2732.9712    3260.4568    2894.7162    794.32017   -780.06426    276.60835   -4139.0632 
19136000     226.3104   -4909.7133   -4457.0646   -4909.7133            0    3120.3286    18.288463    22.828522    19.436605    8114.7554    2423.2664    3523.8684     3413.851   -851.33356    -1523.683   -1041.8802   -4087.7881 
19137000     217.2006   -4923.7115   -4489.2835   -4923.7115            0    1418.1609    18.083977    23.032215    19.480777     8114.017    1146.4519    2068.9636    1039.0672   -385.61713    428.98215    21.024242    -4321.466 
19138000    215.86998   -4917.3956   -4485.6289   -4917.3956            0    599.66439    18.164351    23.164809    19.497384    8203.9868    1641.1342   -479.86097    637.71997   -1483.6572   -390.35007   -976.64502   -4413.8811 
19139000    211.51068   -4927.3656   -4504.3181   -4927.3656            0     2512.254    18.350412     22.81143    19.380475    8112.6501     1237.729    3494.1324    2804.9006   -1137.0005    1740.5655   -532.42939   -4207.0816 
19140000    213.58499   -4890.6601   -4463.4638   -4890.6601            0    1525.3325    18.220144    22.872769    19.614486    8174.2416    1003.9504    1575.0145    1997.0328    1228.1026   -159.02331    1744.9479   -4281.6244 
19141000    220.37353   -4929.0853    -4488.311   -4929.0853            0     1936.617    18.111135    23.081308    19.378893    8100.9334    1084.0998      2089.63    2636.1213    539.45735     357.1784    667.25109   -4259.5117 
19142000    224.58399   -4924.5642   -4475.3685   -4924.5642            0    3880.9297    18.193208    22.955632    19.315381    8066.8097    4372.4513    3048.2316    4222.1062    686.85128   -879.88896    875.69265   -4018.7921 
19143000    221.77361   -4931.8987   -4488.3241   -4931.8987            0    2111.2866    18.160319     22.95173    19.536287    8142.9343    3031.1593    2081.9306      1220.77    1046.6149   -47.903367    470.45972   -4237.5954 
19144000    224.12825   -4922.7813   -4474.4971   -4922.7813            0    1370.2613    18.155343    23.153778    19.353178    8135.3941    2242.9327    600.12201    1267.7292   -1417.6952   -1136.7914   -623.59978   -4311.9205 
19145000    216.04099   -4912.6972   -4480.5886   -4912.6972            0    1983.3027    18.246336     22.99077    19.376553     8128.412     1536.485      2066.05    2347.3729    341.64445    542.36001    1138.1375   -4245.4789 
19146000    213.08461   -4912.7363   -4486.5407   -4912.7363            0    2722.3215    18.154626    22.763267    19.597266    8098.7385    3372.3617     3499.671    1294.9317   -1559.5703    399.08378     10.11971   -4165.0025 
19147000    210.38719   -4933.1471   -4512.3468   -4933.1471            0    1400.1891    18.237856    22.752987    19.630427    8145.9541    2152.6837     2078.621   -30.737264    208.37728    318.93494   -279.45832   -4346.0038 
19148000    213.44003   -4913.5333   -4486.6269   -4913.5333            0    2572.4011    18.192087    23.067435    19.311517    8103.9773    2808.9088    2184.7362    2723.5583    1274.5889   -514.27493   -306.64075   -4182.5995 
19149000    226.76847   -4908.8529    -4455.288   -4908.8529            0    1747.9176    18.158375    23.205286    19.416044    8181.3443    2782.2638    263.16669    2198.3224   -42.419511    71.317645   -359.66707   -4246.7325 
19150000    214.47128   -4919.6197   -4490.6506   -4919.6197            0    2943.3644    18.150144    22.704105    19.596491    8075.3766     1820.936    4303.7013    2705.4558   -683.72645    154.59962    675.81641   -4144.0074 
19151000    221.67361   -4879.2719   -4435.8973   -4879.2719            0    987.80983     18.39791    22.848995    19.526268    8208.3305    3.4812133    2090.1162    869.83205   -1027.0369   -311.93202   -1904.4281   -4317.6465 
19152000    214.68149   -4897.1083   -4467.7188   -4897.1083            0    2892.7288     18.09029    23.040125    19.525391    8138.2324    3167.2292    2959.6684     2551.289    1024.4168    508.42436    30.047302   -4124.3872 
19153000    225.66829   -4917.7842   -4466.4197   -4917.7842            0    2662.1421    18.108447    23.019091    19.437359    8102.2684    3176.6482    2109.9604    2699.8177   -140.38093   -90.118253    442.08153   -4151.8523 
19154000    214.74556   -4910.9436   -4481.4259   -4910.9436            0    3563.8827    18.068044    22.949928    19.463719    8070.8316    3493.1071    3684.8929     3513.648   -79.779121    36.398226   -1586.7574   -4061.9398 
19155000    216.44517   -4923.8111    -4490.894   -4923.8111            0    3686.0341    18.116613     22.96127    19.443683    8088.1922    3257.6455    3469.1121    4331.3448    675.30641   -32.601662    2100.9652   -4056.0969 
19156000     205.6227   -4917.9368    -4506.666   -4917.9368            0     1741.128    18.278391    22.853689    19.525391    8156.3154    982.11905    2376.7937    1864.4712   -1446.4255    1063.4262   -933.57461   -4299.5562 
19157000    217.40354   -4920.0017   -4485.1678   -4920.0017            0    2100.8421    18.238611    22.814346    19.516408    8120.8162    2418.8275    2257.5486    1626.1502    103.91483    -187.1509    -1291.387   -4236.3571 
19158000    213.89455   -4933.4114   -4505.5959   -4933.4114            0    2007.9999    17.995463    23.081086    19.563849    8125.9393     4291.056    1301.0363    431.90742    1336.6782    341.70501    1580.2209   -4267.6308 
19159000    220.73829   -4939.7819    -4498.278   -4939.7819            0    1895.0336    18.206973    23.016176     19.35228    8109.6681    1577.3746    1056.8797    3050.8464    276.71778   -240.36213    810.41707   -4274.1502 
19160000    218.35707   -4905.3951    -4468.654   -4905.3951            0    3312.8581    18.373557    22.937228    19.260926    8117.2952    899.45794    3676.5379    5362.5785    512.76759   -95.800082   -441.20307   -4076.4698 
19161000    211.94676   -4926.8432   -4502.9235   -4926.8432            0    1332.9065     18.14404    22.870091    19.552016    8113.2232    1638.8085    1864.9022    495.00888   -396.14807   -40.235734   -18.896932     -4345.21 
19162000    218.98013   -4914.5368   -4476.5495   -4914.5368            0    2711.8481    17.971017    23.177583    19.498489    8121.6027    3726.3241    1957.5939    2451.6263   -465.49008    1354.5175    1218.4596   -4155.3439 
19163000    218.92017   -4922.6827   -4484.8153   -4922.6827            0    2563.8874    18.176157    23.133502    19.365677    8142.8441    2161.6711    1933.8512    3596.1399   -333.68254    227.00164   -123.52321   -4180.3408 
19164000    215.22626   -4919.5374   -4489.0583   -4919.5374            0    2992.2109    18.192977    23.012374    19.323277    8089.9527    3394.9707    1184.2768    4397.3852    856.90382   -1093.4897   -14.469255   -4136.0263 
19165000    213.87799   -4920.1285   -4492.3461   -4920.1285            0    2514.5971     18.15846    22.855575    19.471051    8080.9156    3782.7909    1682.1255    2078.8747   -1428.4226   -969.36333   -225.33297   -4195.9962 
19166000    226.26271   -4891.8393    -4439.286   -4891.8393            0    3836.3656    18.130884    22.803437    19.526305     8073.082    4066.7598    3408.2137    4034.1233    -269.8412   -1246.2043    -349.3522   -3987.6014 
19167000    218.77572   -4924.5866   -4487.0081   -4924.5866            0    3414.0275      18.1188    23.026773    19.368413    8080.8408    3548.0015    2318.0347    4376.0464    806.99456   -1788.5466    416.62861   -4084.6623 
19168000    225.66705   -4913.3981   -4462.0361   -4913.3981            0    2871.5951    18.151273    23.019974    19.455775     8129.437    2415.1235    2772.1454    3427.5164    249.45218   -20.748525   -821.03917   -4121.5813 
19169000    230.33069    -4908.183   -4447.4932    -4908.183            0    3091.7192     18.20091    22.708381    19.657433    8124.6765      1825.63    4108.1066     3341.421   -381.22967   -145.62213   -427.93217   -4081.1552 
19170000    217.69443   -4910.0959   -4474.6801   -4910.0959            0    1443.3943    18.218258    22.977855    19.475683    8152.8417     982.4146     2199.422    1148.3462    1068.2863   -320.89785   -358.77728   -4303.0593 
19171000    222.62238   -4917.7191   -4472.4468   -4917.7191            0    1424.6728     18.08472    23.229686    19.459021    8174.7805    1841.9514    212.24993     2219.817   -159.84955    -341.5488   -499.60134   -4302.5962 
19172000    209.65358   -4913.0614   -4493.7284   -4913.0614            0    2931.1228     18.09775    22.982096    19.497269    8109.3866    3467.1109    3441.0059    1885.2515    56.188814   -383.93401    214.16473    -4147.073 
19173000    210.76671   -4924.9765   -4503.4171   -4924.9765            0    1546.0645     18.41763     22.67156    19.416513    8107.4894    187.80135    3016.5007    1433.8916    125.91416   -563.92454   -387.20583   -4320.6113 
19174000    213.24702   -4909.9311   -4483.4107   -4909.9311            0    2834.8051    18.156133    22.825802    19.551042    8102.5047    3041.9325    3029.4806     2433.002   -1750.9749    97.516534   -1158.7667   -4148.4311 
19175000    224.45846   -4936.8875   -4487.9428   -4936.8875            0     2531.341    18.098337    23.135164    19.365972    8108.6871    1564.7693    2510.1483    3519.1054    146.69058    726.81745   -81.630549   -4188.5943 
19176000    217.54167    -4923.064   -4487.9538    -4923.064            0    3757.1712    18.093499    23.075525    19.355127    8081.0946    3885.2099     3070.394    4315.9098    1011.8916    299.18444   -1396.4006   -4045.1543 
19177000    223.01058   -4908.9179   -4462.8692   -4908.9179            0    2100.8079    18.132897      22.7635    19.696681    8130.1639    4055.6479    2539.7576   -292.98186     1066.882   -104.95874   -3.9503828   -4213.7762 
19178000    220.05854    -4910.895   -4470.7507    -4910.895            0     452.4001    18.261038    22.936799    19.580856    8201.4368    434.74117    196.58583     725.8733   -1325.1551   -352.98203   -1306.7039   -4416.6394 
19179000     229.2667   -4924.7798    -4466.218   -4924.7798            0    1225.2886    18.143911    23.101943    19.452976    8153.9016   -224.11641    1126.5497    2773.4325    274.95136   -364.39912    1468.5413   -4320.5113 
19180000    214.17836   -4899.0733   -4470.6901   -4899.0733            0    2332.9893    18.042869     23.25441    19.422685    8149.2979     2814.951    2093.0733    2090.9437   -878.81005    -1154.315    95.046911   -4193.4163 
19181000    208.81751   -4916.8739   -4499.2131   -4916.8739            0     1804.481    18.075162    23.017312    19.563489    8139.2264    2458.6456    1426.7373    1528.0602   -140.51328    -159.5951   -1214.4133   -4285.0171 
19182000    222.83513   -4913.7687   -4468.0709   -4913.7687            0    2461.1652    18.263268     22.86401    19.454889     8123.808    1760.6321    2528.5937    3094.2699   -87.074064   -286.16291   -495.41059   -4176.4785 
19183000    216.79913   -4934.4257   -4500.8007   -4934.4257            0    3114.3967    18.310428     22.80937    19.343642    8078.8589    1457.6338    3549.8688    4335.6874    1009.3702   -132.80003    1779.1522   -4133.8567 
19184000    212.01995   -4924.6665   -4500.6004   -4924.6665            0    1266.4005    18.131417    22.994164    19.598359    8170.8848    1596.0568    1918.7649    284.37967    283.50069    321.80181    -89.54182   -4349.6911 
19185000    227.57742   -4906.8493   -4451.6664   -4906.8493            0    2033.9962    18.190299    23.041339    19.467591    8159.4289    3575.1468     1422.633    1104.2087    840.07195    -783.9422   -1236.2979   -4209.6271 
19186000    216.63559   -4900.6862   -4467.3883   -4900.6862            0    1301.5185    18.398747    22.884206    19.378417    8159.1025    669.51038    1684.4995    1550.5457    1608.4528   -238.30669   -258.56947   -4312.5178 
19187000     208.8663   -4912.3793   -4494.6209   -4912.3793            0    2257.1673     18.03005    22.946999    19.635796    8124.0265    781.28148     3743.726    2246.4944    487.18698   -535.83013    37.932053   -4227.1903 
19188000    221.20275   -4901.2653   -4458.8325   -4901.2653            0    2968.2338    18.061072    23.082688    19.454581    8110.5777    3077.4288    2635.2513    3192.0214    1148.5417    21.820752    1707.8399   -4107.7366 
19189000    208.41486   -4919.4889   -4502.6334   -4919.4889            0    2552.5914    18.134718    23.023254    19.365617    8085.5368    1475.9155    3204.8876    2976.9712    -227.0991   -234.38961    900.58351   -4201.6337 
19190000    232.27217   -4902.9387   -4438.3657   -4902.9387            0     1715.121    18.083548    22.859724    19.679147    8135.0626    2049.1182    1438.7462    1657.4986   -1057.5364   -113.42416   -341.73397   -4234.8811 
19191000    225.37248   -4919.5973   -4468.8245   -4919.5973            0    2207.6096    18.312515    22.783437    19.419804      8102.37    634.96178    3049.7014    2938.1656   -1337.3064    -401.4394     228.5066   -4207.9628 
19192000    230.45562   -4925.5438   -4464.6041   -4925.5438            0    2900.8461    18.232477    22.854231     19.40474    8085.7464    2910.2919    2118.7441    3673.5024   -940.69823   -1396.2898   -414.77646   -4122.5296 
19193000     214.2714   -4913.8826   -4485.3133   -4913.8826            0    3502.5095    18.027549    23.014275    19.476338    8080.5568     3602.031    3036.9995    3868.4978    122.59545    237.16769    -129.6465   -4072.5544 
19194000    211.90209   -4893.1062   -4469.2758   -4893.1062            0    1129.0185    18.123608    23.011252    19.594262    8171.7263     1918.658    1829.3838   -360.98637   -417.09329    76.087699    -27.45254   -4334.7237 
19195000    212.54848   -4901.1352    -4476.012   -4901.1352            0    2180.9791    18.437518    22.845858    19.312123    8134.6699    1753.5573    2197.1231     2592.257   -144.78269    254.17008   -1643.7446   -4217.2698 
19196000    214.11807   -4920.6289   -4492.3663   -4920.6289            0    1252.8693    18.250733    22.825448    19.585391     8158.905    1153.6438    1779.7126    825.25166   -66.631191   -356.10539   -1443.5328   -4343.2883 
19197000    211.06051   -4903.8479   -4481.7008   -4903.8479            0    2048.4141    18.102758     22.98605    19.560139    8139.1872    749.20379    3654.3034    1741.7349    294.03732    1432.9312    902.24027   -4238.5506 
19198000    226.85979   -4925.1341   -4471.3864   -4925.1341            0    2140.5125    18.275916    22.903918    19.371338    8108.6499    1703.3278    2101.4439    2616.7657   -2506.4174    245.48544     14.16414   -4218.2573 
19199000    217.49585    -4893.166   -4458.1474    -4893.166            0    3022.9791     18.19205    23.096407    19.329039    8121.5014    2987.1971     2681.928    3399.8121   -478.32577    80.653762    180.53771   -4100.0944 
19200000    215.08606   -4917.5483   -4487.3496   -4917.5483            0    2040.9406    18.223706    22.971395    19.428014    8133.0317     2258.722    1630.6322    2233.4675   -1406.4494    -148.5141   -1630.6239   -4245.2697 
19201000    216.33182   -4900.6642   -4467.9738   -4900.6642            0    2380.4957    18.183005    22.709558    19.691045    8130.9836    862.38625    4571.3022    1707.7987    6.5393084   -183.19356    301.64605   -4185.6897 
19202000    218.89469   -4916.4997   -4478.6833   -4916.4997            0    1825.7875    18.245186    22.832195      19.5067    8126.0548    845.66328    3122.1901    1509.5092    1261.8301    436.00295      1487.52   -4262.3089 
19203000    208.83232   -4924.0733   -4506.3829   -4924.0733            0    228.52782    18.227104    23.082828    19.369549    8149.4104   -77.393329   -668.71463    1431.6914    202.35374   -1506.6253    973.39401   -4479.2222 
19204000    216.20979   -4944.1609   -4511.7146   -4944.1609            0    1703.6504    18.047213    23.160222    19.437852    8124.5842    1311.6581    1911.2775    1888.0157   -638.30932   -57.946927    -1301.397   -4309.8513 
19205000    206.03219   -4917.3924   -4505.3026   -4917.3924            0    2117.2242    18.192054    22.847604    19.619055    8154.5593    2791.0829    2594.9971    965.59246   -89.360636    692.10894    201.60485   -4253.5099 
19206000    221.08499   -4938.1213    -4495.924   -4938.1213            0    2961.5755    18.309457     22.64098    19.489852    8079.4021    3235.9994    3927.2549    1721.4723    2289.7896    281.76521    1348.1933   -4146.9621 
19207000    221.05814   -4918.4283   -4476.2847   -4918.4283            0    4643.6888    18.194544    22.749759    19.440522    8046.8499    6168.4805    2941.8387    4820.7472    899.87291   -1189.4267   -729.16339   -3931.3243 
19208000    219.53281   -4900.2611   -4461.1684   -4900.2611            0    2574.7853    18.140561    23.091864    19.452268    8148.5427    3218.2273    1871.7243    2634.4042   -205.53554   -101.69684   -497.37389   -4155.1857 
19209000    217.14843    -4915.201   -4480.8773    -4915.201            0    1575.7376    18.084428    23.265523    19.381176    8154.5071     2628.985    526.66545    1571.5624    475.76755    568.06758    -775.9094   -4293.4825 
19210000    218.00528   -4905.1415    -4469.104   -4905.1415            0    -231.5374    18.360672    22.983462    19.463978    8213.6393   -657.47501    289.76667   -326.90387   -362.39686     373.5682    345.16511   -4496.8393 
19211000    219.04972   -4914.2253   -4476.0988   -4914.2253            0    2089.8126    18.300577    22.729944    19.572779    8141.7102    1423.1423    2881.2935     1965.002    1405.0545    1380.7383    1560.6713   -4227.9576 
19212000    223.71284   -4922.4932   -4475.0399   -4922.4932            0    3340.0619    18.130243    22.888204    19.501796    8092.6348    2185.1361    3961.5097    3873.5397    260.89344      980.044    2708.4603   -4080.8365 
19213000    220.86536   -4917.6823   -4475.9243   -4917.6823            0    1211.8589    17.910104    23.362888     19.49372    8156.7918    3681.2926   -1255.2911    1209.5751    -579.5742    -1748.314    408.48562   -4331.7635 
19214000    218.86386   -4919.7137    -4481.959   -4919.7137            0    1796.7304    18.254381    22.896372    19.461171    8133.9734    2789.6204    1312.0451    1288.5258    1211.4382   -1295.9951    735.46184   -4268.8206 
19215000     215.8245   -4954.5213   -4522.8456   -4954.5213            0    2911.6617    18.287504    22.865501    19.413462    8117.7964    2147.8586    2415.5488    4171.5778    -859.2179    607.60504   -258.06948   -4178.1348 
19216000    217.61092    -4918.134   -4482.8853    -4918.134            0    3089.9719    17.995892     23.04232    19.546118    8105.1322    3732.6725    3083.9646    2453.2786    1366.7623    143.07418    1272.5225    -4117.635 
19217000     218.3965   -4949.4357   -4512.6157   -4949.4357            0    2522.6058    18.123622    23.073913    19.379039    8103.9823    3940.8942    1177.9724    2448.9509    143.19953   -157.73829    699.37452   -4214.4733 
19218000    218.03985   -4898.2234   -4462.1168   -4898.2234            0    2691.9183    18.228057    23.051785    19.362576    8135.9463    2761.7378     2503.893     2810.124    -572.5404    318.84152   -577.11003   -4142.7088 
19219000    216.64391   -4913.1702   -4479.8556   -4913.1702            0    2803.4785    18.093389    22.962138     19.52682    8112.6692    4610.5513    2937.1459    862.73825    900.03875    783.98995    102.97609   -4148.1622 
19220000    208.66433   -4931.2306   -4513.8761   -4931.2306            0    2872.7663    18.185977    22.680079    19.639089    8100.3266    3739.6604     3139.424    1739.2145    308.15182    1328.1019   -69.834585    -4174.502 
19221000     211.5441   -4911.6827   -4488.5684   -4911.6827            0    3870.7997    18.121522    23.037446    19.384192    8092.3882    3358.8554    3835.7461    4417.7978    1007.1949     998.0678   -1726.7078   -4031.7398 
19222000    208.01357   -4929.9996   -4513.9468   -4929.9996            0    1387.9463    18.120515    23.120104    19.395642    8125.7688    107.98699    1814.4947    2241.3573   -568.79976    207.89517    1227.6392   -4349.4668 
19223000    210.60262   -4930.0652    -4508.834   -4930.0652            0     3128.923    18.238548    22.824348    19.470623    8105.2885    3407.3361    3748.1553    2231.2777    379.89875   -64.486686     1371.172   -4138.9724 
19224000    231.08904   -4943.9341   -4481.7274   -4943.9341            0    944.71727    18.339044    22.742311    19.557596    8156.9305    435.99674    661.66219    1736.4929   -783.25978   -1078.7898    1532.2556   -4369.3434 
19225000     212.3538   -4920.1647   -4495.4309   -4920.1647            0    3015.3821    18.019392    23.121929     19.40157    8083.5303    2215.1312      2859.83     3971.185   -76.392962    185.54796   -491.80295   -4139.9475 
19226000    219.24511   -4923.7181   -4485.2008   -4923.7181            0    2311.4546    18.066444    23.196703    19.328225    8100.1101    1995.4622    2175.6301    2763.2714    741.79257    190.22874   -684.65131   -4212.1445 
19227000    228.35111   -4887.3167   -4430.5863   -4887.3167            0    2426.6483     18.28495    22.759349    19.538991    8131.2208    2067.5503    3083.7999    2128.5946     38.64555   -2.6821454   -179.86274   -4142.8209 
19228000    227.80341   -4910.2997   -4454.6648   -4910.2997            0    1781.8969    18.281494     22.83257    19.590443    8177.3148    3345.5125    1176.8972    823.28101   -159.21782   -2093.2038    650.37432   -4242.1598 
19229000    233.00502   -4926.5476   -4460.5087   -4926.5476            0     1643.368    18.241271    22.887362    19.455481    8122.5576    1449.8827    999.26007    2480.9614   -313.60397   -1062.9575   -1003.1037   -4265.8367 
19230000    230.00568   -4899.6589   -4439.6191   -4899.6589            0    2067.2345    18.122039    23.047518     19.48822    8139.6064    2440.8117    2286.6297    1474.2621   -299.85491   -701.44711    778.11937   -4194.2223 
19231000    216.46498   -4882.0425   -4449.0858   -4882.0425            0    2785.2908    18.113409    22.941273    19.621046     8153.421    3942.6567    3327.8577     1085.358   -42.222286    862.28304   -1069.3874   -4117.8888 
19232000    215.59508   -4901.2447   -4470.0279   -4901.2447            0    1727.0163    18.285275    22.572362    19.697865    8130.1332    891.99415    3097.0055    1192.0492   -1041.3448    895.31293   -702.12681   -4265.2562 
19233000    215.52157   -4924.5194   -4493.4497   -4924.5194            0    1946.2908     18.25967    23.051616    19.331833    8137.0566    2271.9135    1038.4842    2528.4747    798.42041   -132.24223   -90.593689   -4262.4821 
19234000    226.52005   -4910.4413   -4457.3732   -4910.4413            0    1584.2435    18.031416    23.279287    19.375612     8133.078    2525.8019    795.09315    1431.8355   -159.30206   -211.13136    717.80824   -4269.4619 
19235000    219.51046   -4942.0564   -4503.0084   -4942.0564            0     2309.201     18.18127    22.740538    19.586065    8097.8951    4099.0203    1650.4801    1178.1026   -1511.3567   -485.97608    -1011.772   -4230.2929 
19236000     214.8209   -4918.6953   -4489.0269   -4918.6953            0     2658.985    18.200012    22.839659    19.557117    8129.5427    3683.5172    1691.6982    2601.7396   -1045.4148   -578.60862    -211.8062   -4173.7749 
19237000    215.15304   -4922.7131   -4492.3805   -4922.7131            0    2276.1709    18.270464    22.961417    19.392248    8135.3536    1619.9407     2923.304    2285.2679    410.53295    202.85627    700.05399   -4222.3224 
19238000    224.02892   -4910.8132   -4462.7277   -4910.8132            0     2636.178     18.07787    23.305676     19.25013    8110.4065    2116.4045    2371.9174    3420.2122   -890.80728     -311.257    898.94057   -4150.9154 
19239000    219.93161   -4917.7678   -4477.8774   -4917.7678            0    3541.6462    17.950654    22.984229    19.595744    8084.8497    5431.6014    2322.7337    2870.6035   -89.391501    -437.9129    558.69896   -4060.2846 
19240000    233.01943   -4933.6933   -4467.6256   -4933.6933            0    2094.8159    18.311092    22.826654    19.489821     8146.374    1251.2618     1753.526      3279.66   -744.78082   -582.89537    1035.0837   -4218.7478 
19241000    218.75708   -4936.5027   -4498.9615   -4936.5027            0    1602.1555    18.396434    22.650126     19.52144    8134.2237    1599.0241    2234.3282    973.11426   -526.72872    146.26466   -107.78432   -4308.8989 
19242000    217.99069   -4921.1321   -4485.1238   -4921.1321            0     732.1755    18.089473    23.041963    19.659062    8194.2306    974.68211    922.82271     299.0217    500.34321    1173.4361    1544.2206   -4397.6255 
19243000    226.07327   -4903.4303   -4451.2559   -4903.4303            0    1974.4996    17.882269    23.373738    19.457657    8132.8234    2223.9281    1782.4341    1917.1365    368.31271   -440.22389    1326.0255   -4217.0627 
19244000     214.9697   -4891.8303   -4461.8643   -4891.8303            0    2612.6619    18.250124    22.999941    19.362382    8127.3941    451.72218    3546.0002    3840.2631   -1054.7747   -291.57005   -2454.1104   -4152.1863 
19245000    227.02304    -4908.471   -4454.3969    -4908.471            0     2931.193    18.126566    22.961044    19.534294    8130.2685     1262.178    4417.4448    3113.9563    1021.8001    265.71374    275.94646   -4106.8405 
19246000    215.80437   -4917.3008   -4485.6654   -4917.3008            0    1928.5755    18.107549    22.843108    19.709439    8152.4683    2223.3387    2678.5539    883.83372    175.71542    565.30504   -1674.2895   -4256.3667 
19247000    218.29004   -4915.4646   -4478.8575   -4915.4646            0    3081.9931    18.252032    22.999404     19.29387     8099.294    2164.6583    2422.8989    4658.4221   -700.68788    316.32802   -43.984786   -4114.8128 
19248000    217.05572   -4896.5316   -4462.3934   -4896.5316            0    2635.5293    18.129625    23.119141    19.395382    8129.4067    1262.2089    3103.8548    3540.5242   -411.05372    1557.6434    604.43151   -4149.9275 
19249000     213.1698   -4920.5076   -4494.1416   -4920.5076            0    245.79478     18.07873    23.141453    19.535726    8173.1241    1209.6057   -531.93786    59.716459      447.484     18.19609    1953.3778   -4464.8437 
19250000    220.61314   -4889.3165    -4448.063   -4889.3165            0    1645.1506    18.343807     22.93175     19.44531    8179.7785    737.17436    1536.6881    2661.5894   -278.65283    296.85949   -717.90846   -4251.8069 
Loop time of 511.872 on 64 procs for 250000 steps with 1008 atoms

Performance: 84.396 ns/day, 0.284 hours/ns, 488.403 timesteps/s
99.2% CPU use with 64 MPI tasks x 1 OpenMP threads

MPI task timing breakdown:
Section |  min time  |  avg time  |  max time  |%varavg| %total
---------------------------------------------------------------
Pair    | 27.044     | 31.259     | 34.987     |  31.1 |  6.11
Bond    | 0.27825    | 0.29418    | 0.30371    |   0.8 |  0.06
Kspace  | 241.8      | 251.54     | 261.01     |  29.9 | 49.14
Neigh   | 2.9167     | 3.4457     | 3.8858     |  14.9 |  0.67
Comm    | 95.725     | 104.8      | 114.71     |  49.3 | 20.47
Output  | 1.8423     | 1.8435     | 1.8556     |   0.2 |  0.36
Modify  | 105.23     | 110.43     | 114.69     |  25.0 | 21.57
Other   |            | 8.269      |            |       |  1.62

Nlocal:        15.7500 ave          20 max          11 min
Histogram: 1 1 5 11 4 17 19 4 1 1
Nghost:        2475.14 ave        2491 max        2456 min
Histogram: 2 0 7 7 9 13 12 4 6 4
Neighs:        5123.06 ave        6464 max        3602 min
Histogram: 1 1 5 11 4 17 19 3 2 1

Total # of neighbors = 327876
Ave neighs/atom = 325.27381
Ave special neighs/atom = 2.0000000
Neighbor list builds = 7018
Dangerous builds = 0

unfix		3
unfix		2
unfix		1

write_data	data.final.${pid}
write_data	data.final.0
System init for write_data ...
PPPM initialization ...
  extracting TIP4P info from pair style
  using 12-bit tables for long-range coulomb (../kspace.cpp:340)
  G vector (1/distance) = 0.37823851
  grid = 24 27 36
  stencil order = 5
  estimated absolute RMS force accuracy = 0.0025512004
  estimated relative force accuracy = 7.6828643e-06
  using double precision FFTW3
  3d grid and FFT values/proc = 4050 480
Last active /omp style is kspace_style pppm/tip4p/omp
WARNING: Not all mixed pair coeffs generated from mixing. Use write_data with 'pair ij' option to store all pair coeffs. (../write_data.cpp:312)

write_restart   restart.lmp.${pid}
write_restart   restart.lmp.0
System init for write_restart ...
PPPM initialization ...
  extracting TIP4P info from pair style
  using 12-bit tables for long-range coulomb (../kspace.cpp:340)
  G vector (1/distance) = 0.37823851
  grid = 24 27 36
  stencil order = 5
  estimated absolute RMS force accuracy = 0.0025512004
  estimated relative force accuracy = 7.6828643e-06
  using double precision FFTW3
  3d grid and FFT values/proc = 4050 480
Last active /omp style is kspace_style pppm/tip4p/omp
Total wall time: 0:08:33
