LAMMPS (30 Jul 2021)
Processor partition = 0
  using 2 OpenMP thread(s) per MPI task
using multi-threaded neighbor list subroutines
variable        pid world 0 1
variable        phase world IceIh IceIII

shell cd ${phase}
shell cd IceIh
include Restart.lmp
echo both
log log.lammps
#include		in.partitions
include		in.temp
variable        temperature equal 45.22
variable	tempDamp equal 100.0
include		in.pressure
variable        pressure equal 2144.8
variable        pressureDamp equal 1000.0 # This is 1 ps
include		in.seed
variable        seed equal 745823

units		real
atom_style	full
#include		in.box
read_restart	restart.lmp.${pid}
read_restart	restart.lmp.0
Reading restart file ...
  restart file = 30 Jul 2021, LAMMPS = 30 Jul 2021
  restoring atom style full from restart
  orthogonal box = (0.15231068 0.17590839 0.15280564) to (18.055262 23.453269 22.060390)
  2 by 4 by 4 MPI processor grid
  restoring pair style lj/cut/tip4p/long/omp from restart
  restoring bond style harmonic/omp from restart
  restoring angle style harmonic/omp from restart
  864 atoms
  576 bonds
  288 angles
Finding 1-2 1-3 1-4 neighbors ...
  special bond factors lj:    0        0        0       
  special bond factors coul:  0        0        0       
     2 = max # of 1-2 neighbors
     1 = max # of 1-3 neighbors
     1 = max # of 1-4 neighbors
     2 = max # of special neighbors
  special bonds CPU = 0.002 seconds
  read_restart CPU = 0.009 seconds
include 	in.setup
variable	out_freq equal 1000
variable	out_freq2 equal 10000
variable	out_freq3 equal 1000

timestep	2.0

neigh_modify    delay 7 every 1

include		in.tip4p
# This is TIP4P/Ice

# create groups ###
group ox type 2
288 atoms in group ox
group hy type 1
576 atoms in group hy

# set charges - beside manually ###
set group ox charge -1.1794
Setting atom values ...
  288 settings made for charge
set group hy charge 0.5897
Setting atom values ...
  576 settings made for charge

# ### TIP3P Potential Parameters ###
pair_style lj/cut/tip4p/long/omp 2 1 1 1 0.1577 8.5
pair_coeff 1 1*2 0.000 0.000
pair_coeff 2 2 0.21084 3.1668
bond_style  harmonic
bond_coeff  1 450 0.9572
angle_style harmonic
angle_coeff 1 55 104.52
kspace_style pppm/tip4p/omp 1.0e-5
pair_modify tail yes

thermo          ${out_freq}
thermo          1000
thermo_style    custom step temp pe etotal epair emol press lx ly lz vol pxx pyy pzz pxy pxz pyz enthalpy

restart 	${out_freq3} restart.lmp.${pid} restart2.lmp.${pid}
restart 	1000 restart.lmp.${pid} restart2.lmp.${pid}
restart 	1000 restart.lmp.0 restart2.lmp.${pid}
restart 	1000 restart.lmp.0 restart2.lmp.0


include         in.dump
dump            myDump all atom ${out_freq2} dump.water.${pid}
dump            myDump all atom 10000 dump.water.${pid}
dump            myDump all atom 10000 dump.water.0
dump            myDump2 all dcd ${out_freq2} dump.dcd
dump            myDump2 all dcd 10000 dump.dcd
dump_modify     myDump append yes
dump_modify     myDump2 append yes


variable natoms 	equal  "count(all)"                        # NUMBER ATOMS
variable H      	equal  "enthalpy/v_natoms"                 # ENTHALPY-per-atom
variable Vol      	equal  "vol/v_natoms"                 # volume-per-atom
fix AVG all 		ave/time ${out_freq} 1 ${out_freq} v_Vol v_H file vol_enthalpy.dat
fix AVG all 		ave/time 1000 1 ${out_freq} v_Vol v_H file vol_enthalpy.dat
fix AVG all 		ave/time 1000 1 1000 v_Vol v_H file vol_enthalpy.dat


timer           timeout 23:50:00 every 1000
New timer settings: style=normal  mode=nosync  timeout=23:50:00

fix 		1 all shake 1e-6 200 0 b 1 a 1
Finding SHAKE clusters ...
       0 = # of size 2 clusters
       0 = # of size 3 clusters
       0 = # of size 4 clusters
     288 = # of frozen angles
  find clusters CPU = 0.001 seconds
fix             2 all nph aniso ${pressure} ${pressure} ${pressureDamp}
fix             2 all nph aniso 2144.8 ${pressure} ${pressureDamp}
fix             2 all nph aniso 2144.8 2144.8 ${pressureDamp}
fix             2 all nph aniso 2144.8 2144.8 1000
fix             3 all temp/csvr ${temperature} ${temperature} ${tempDamp} ${seed}
fix             3 all temp/csvr 45.22 ${temperature} ${tempDamp} ${seed}
fix             3 all temp/csvr 45.22 45.22 ${tempDamp} ${seed}
fix             3 all temp/csvr 45.22 45.22 100 ${seed}
fix             3 all temp/csvr 45.22 45.22 100 745823


run             250000
PPPM initialization ...
  extracting TIP4P info from pair style
  using 12-bit tables for long-range coulomb (../kspace.cpp:340)
  G vector (1/distance) = 0.37212861
  grid = 24 27 25
  stencil order = 5
  estimated absolute RMS force accuracy = 0.0031113277
  estimated relative force accuracy = 9.3696709e-06
  using double precision FFTW3
  3d grid and FFT values/proc = 4410 672
Last active /omp style is kspace_style pppm/tip4p/omp
Neighbor list info ...
  update every 1 steps, delay 7 steps, check yes
  max neighbors/atom: 2000, page size: 100000
  master list distance cutoff = 10.8154
  ghost atom cutoff = 10.8154
  binsize = 5.4077, bins = 4 5 5
  1 neighbor lists, perpetual/occasional/extra = 1 0 0
  (1) pair lj/cut/tip4p/long/omp, perpetual
      attributes: half, newton on, omp
      pair build: half/bin/newton/omp
      stencil: half/bin/3d
      bin: standard
Setting up Verlet run ...
  Unit style    : real
  Current step  : 41500000
  Time step     : 2
  Walltime left : 23:49:59.90
Per MPI rank memory allocation (min/avg/max) = 10.19 | 10.21 | 10.23 Mbytes
Step Temp PotEng TotEng E_pair E_mol Press Lx Ly Lz Volume Pxx Pyy Pzz Pxy Pxz Pyz Enthalpy 
41500000    48.621445    -4651.939   -4568.6035    -4651.939            0    1896.7677    17.902951    23.277361    21.907585    9129.6234    2302.7197    2217.2152    1170.3681    136.88462    50.904544    95.191859   -4316.0561 
41501000    44.125877   -4656.6563   -4581.0261   -4656.6563            0    2306.6398    17.891632    23.286007    21.873904    9113.2078    2393.0822     2408.935    2117.9021   -457.29559    335.87688    114.87503    -4274.458 
41502000    45.019698   -4659.7537   -4582.5915   -4659.7537            0    2003.2199    17.908273    23.274997    21.884609    9121.8335    1679.0213    2630.3751    1700.2632   -514.70934    296.81216    158.66795    -4316.098 
41503000    46.026216   -4663.1536   -4584.2663   -4663.1536            0    2527.1659    17.963232    23.147661    21.866888    9092.4012     2034.238    3429.2495    2118.0101    130.25368    108.72077    29.376462   -4249.1556 
41504000    42.690962   -4662.2625   -4589.0916   -4662.2625            0    2768.1899    17.818275    23.277426    21.913272    9088.8269    2952.8317    2787.7147    2564.0232    198.32383   -463.13845    151.61833   -4222.1647 
41505000    47.963309   -4664.3284    -4582.121   -4664.3284            0    2176.7519    17.999357    23.156672    21.882389     9120.694    1534.8315    2100.8472    2894.5771   -191.55861     70.86491    268.12055   -4292.5782 
41506000    44.584493   -4655.8452   -4579.4289   -4655.8452            0    2647.4655    17.884858    23.337835    21.783621    9092.3497    2746.4084    1799.2943    3396.6939    499.36046    331.88596   -156.29285   -4228.3681 
41507000    45.515642   -4660.3748   -4582.3625   -4660.3748            0    1843.9973     17.87407    23.356192    21.857007    9124.6497    2299.0933     1720.802    1512.0966   -37.407355   -110.74149    227.13091   -4336.9751 
41508000    46.456095   -4659.1589   -4579.5347   -4659.1589            0    2184.4726    17.967132    23.276647    21.811085    9121.7141    1847.8388    2748.9639    1956.6152    292.83389   -536.58281    29.568105   -4288.9325 
41509000    47.397145   -4659.0336   -4577.7965   -4659.0336            0    1806.5575    17.947539    23.241146    21.887103    9129.5784    1957.0749    1646.0445    1816.5532    430.10714      56.1145     -99.2269   -4337.2615 
41510000    45.647202   -4660.8793   -4582.6416   -4660.8793            0    2052.5048    17.950756    23.240978    21.853509     9117.134    1931.3455      1639.34    2586.8288   -25.141597    131.93061   -63.454823   -4309.7322 
41511000    44.535995   -4659.7678   -4583.4346   -4659.7678            0    1832.1623    17.958727     23.29261    21.838682     9135.243    1965.8136    1910.1875    1620.4858   -268.13602   -256.98586   -265.36058    -4339.339 
41512000    47.677488    -4658.254   -4576.5364    -4658.254            0     1521.132    17.838585    23.331055    21.961901    9140.3896    1787.7437    1381.6229    1394.0294   -233.26647   -281.42145    147.78085   -4373.7647 
41513000    46.636902   -4658.1318   -4578.1978   -4658.1318            0    1999.1077    17.954482    23.192394    21.915285    9125.6874    1802.9906    1801.5911    2392.7413    79.346908    110.50398    258.25774   -4312.1389 
41514000    43.738944   -4660.8842   -4585.9171   -4660.8842            0    1481.2483    17.843321     23.40246    21.900403    9145.1174    1784.2987    1514.4103     1145.036    46.864388    373.90672    105.01529   -4388.3598 
41515000    45.519608   -4661.6736   -4583.6546   -4661.6736            0    2012.9755    17.887343    23.303716    21.869308    9116.0364     2102.172    1697.1605    2239.5941     362.1649   -159.06256   -10.512176   -4316.0334 
41516000    46.164249   -4660.6239      -4581.5   -4660.6239            0     2258.559    17.928058    23.257986    21.852213    9111.7286    2309.1764    2260.0792    2206.4214   -59.799043    316.41701    285.98007   -4281.3709 
41517000    47.511667   -4663.0397   -4581.6063   -4663.0397            0    2162.7032    17.881982    23.234764    21.950276    9119.9801    2215.9673    1752.7505    2519.3917    61.530272   -258.18926    99.917374   -4293.9548 
41518000    45.245193   -4665.3256   -4587.7769   -4665.3256            0    2290.6029    17.912479    23.201563    21.927255    9112.9123    1842.9069     2489.736    2539.1659   -302.92225   -220.53882    127.40222   -4283.3501 
41519000    44.614797   -4657.6668   -4581.1985   -4657.6668            0    2715.5918    17.841268    23.381059     21.76403    9078.8158    2713.0751    2341.5392     3092.161   -256.58119    107.20902    219.43973     -4221.64 
41520000    45.306354   -4663.3977   -4585.7441   -4663.3977            0    2414.5386    17.948737    23.134839     21.93485    9108.2521     1568.873    2537.2232    3137.5196   -1.3144195   -112.26946   -30.217645   -4265.0101 
41521000    44.908306   -4662.3063    -4585.335   -4662.3063            0    2482.2225    17.847969    23.312546    21.878835    9103.3808    2227.7347    2261.0398    2957.8931   -207.22346   -252.86966    -58.96266   -4255.7866 
41522000    48.263565   -4662.8251    -4580.103   -4662.8251            0    1875.8016    17.908704    23.285453    21.901321      9133.12    2147.9965    1848.0231    1631.3852    207.64614   -199.26436   -104.79634   -4330.2515 
41523000    43.300978   -4660.4307   -4586.2143   -4660.4307            0    1845.4207    17.937697    23.300182    21.825645    9122.0635    1302.0224    1877.5312    2356.7086   -142.70623    237.46277   -159.69488    -4340.707 
41524000    49.554454   -4658.0111   -4573.0765   -4658.0111            0    2655.0206    17.921434    23.209718    21.892846    9106.3605    2337.8767    3221.2119    2405.9732   -188.47468   -7.3317575    129.92829   -4220.4714 
41525000    46.660982   -4661.4053     -4581.43   -4661.4053            0    1915.3368    18.007125    23.201947    21.840036    9124.7747    1800.8512    1479.8114    2465.3476   -343.26467    -346.6227    147.95247   -4326.5456 
41526000    45.001962   -4654.1504   -4577.0186   -4654.1504            0    1936.5901    18.008321    23.181255    21.841353    9117.7923    1622.8897    2348.9798    1837.9009   -267.59202    182.66955    108.97149   -4319.5031 
41527000    47.059345   -4661.1277   -4580.4696   -4661.1277            0    1656.8129    17.893492    23.305867    21.933913     9146.954    1444.7814     1983.433    1542.2243   -429.66812   -427.63418    41.741876   -4359.4525 
41528000      46.8307   -4665.5054   -4585.2392   -4665.5054            0    2189.3482    17.852712    23.353709    21.863135    9115.3324    2735.4386    2273.1243    1559.4817   -398.94257   -408.19476      392.987   -4294.1921 
41529000    42.582836   -4661.2251   -4588.2396   -4661.2251            0    2656.5828    17.820596    23.324995    21.877657    9093.7831    2771.1153    2603.4117    2595.2213   -155.58655   -148.64965    -74.19118   -4235.9143 
41530000    48.576487   -4664.4114   -4581.1529   -4664.4114            0    1775.1161    17.920642    23.261513    21.915739    9135.8224    1567.5799    2260.6874    1497.0809   -204.18738    110.69474    112.64383   -4344.6425 
41531000    46.124883   -4656.3209   -4577.2645   -4656.3209            0     2300.679    17.989739    23.175533    21.860544    9114.1373    1673.3144    3069.9437    2158.7788   -255.62908   -245.22888   -153.29957   -4271.4574 
41532000    44.739011   -4656.0914   -4579.4102   -4656.0914            0    2094.0708    17.864888    23.324433    21.895664    9123.6691    1985.3238    2235.3559    2061.5328   -288.36666    127.85647    206.97601   -4300.7745 
41533000    46.705634   -4660.9771   -4580.9253   -4660.9771            0    2207.2696    17.886169    23.273666    21.884116    9109.8482    2246.9227    1316.5219    3058.3642   -301.66078    165.96459   -239.21412   -4287.6723 
41534000    46.381994    -4666.603   -4587.1058    -4666.603            0    2378.8842    17.890645    23.283704    21.843698    9099.2215    2800.4305    2138.1734    2198.0487   -170.03082   -163.59771    56.553478   -4271.4212 
41535000    43.668842   -4664.1461   -4589.2992   -4664.1461            0     2594.861    17.821237     23.26937    21.938001    9097.4465    2725.5899    2934.2053    2124.7877   -137.18052    234.20596   -46.315879    -4245.021 
41536000     42.75103   -4660.1198    -4586.846   -4660.1198            0    2084.5726    17.772116    23.376779    21.973238    9128.8879    2202.2775    1504.2164    2547.2239   -633.66986   -297.11435    468.91955   -4309.3154 
41537000    45.024144   -4658.8703   -4581.7005   -4658.8703            0    1837.3506    17.954527    23.225427    21.907935    9135.6426    1838.7484    1740.4074    1932.8959   -472.99234   -299.05161    154.12501    -4336.903 
41538000    46.205113   -4660.2959    -4581.102   -4660.2959            0    2605.6931    17.930057    23.236177    21.813879    9088.2287    2735.9382    2407.3557    2673.7853   -2.6273988   -74.257431    322.32844   -4235.7369 
41539000    46.676849   -4661.6019   -4581.5994   -4661.6019            0    2360.3142    17.909608    23.228797    21.898373    9110.1317    2095.8393    2386.2306    2598.8727   -303.59405   -48.898396    372.35939   -4268.0035 
41540000    46.388371   -4661.2617   -4581.7536   -4661.2617            0    2676.6058    17.821982     23.34885    21.862612     9097.531    2827.4336    2899.8916    2302.4923    203.27914    59.685318     82.15262   -4226.6265 
41541000     45.49343   -4663.4851   -4585.5109   -4663.4851            0    1988.1682    17.961152    23.327469    21.773013    9122.6359      1987.54    1451.2232    2525.7414   -276.26858    430.14465    154.11031   -4320.9965 
41542000    43.999655   -4659.8299    -4584.416   -4659.8299            0    2293.4304    17.846554    23.370601    21.819358    9100.5201    1896.4993    2513.9949    2469.7969    309.53234    196.96041    228.65247   -4280.0279 
41543000     48.08086   -4662.3755   -4579.9665   -4662.3755            0    2437.8544    17.895697    23.133431    21.963719    9092.7349    2495.1414    2904.0266    1914.3951    221.89017    289.43369   -178.02017    -4256.687 
41544000    46.053824   -4659.8732   -4580.9385   -4659.8732            0    2604.3583    17.906137    23.338105      21.7762    9100.1719    2436.6843    2202.4451    3173.9455   -275.49642   -266.64395   -40.583666   -4235.2967 
41545000    43.399877   -4665.8031   -4591.4172   -4665.8031            0    2310.8111    17.794953     23.33305    21.915502    9099.5471    3083.4752    2028.3072    1820.6509    25.321093   -21.737736   -123.35726   -4284.7551 
41546000    47.455838   -4661.6241   -4580.2864   -4661.6241            0    2363.4758    17.908827    23.303178    21.834491    9112.2445      2704.22     2023.107    2363.1005    60.983227    271.25531   -13.880798   -4266.1976 
41547000    44.660812   -4662.1106   -4585.5635   -4662.1106            0    1931.6053    18.037467    23.297591     21.69692    9117.6867    1384.7898    2656.5463    1753.4797    65.968669   -57.405222   -154.19142   -4328.7139 
41548000    45.000141   -4659.3854   -4582.2567   -4659.3854            0    2110.8181    17.924791     23.32086    21.784901     9106.558    2060.2094    1706.7954    2565.4494   -101.01652   -13.451905   -72.478195   -4301.9193 
41549000    47.287639   -4661.3244   -4580.2751   -4661.3244            0    2305.2824    17.771698    23.382472    21.928145    9112.1584    2515.5033    1758.1381    2642.2059   -88.034085   -244.78137    69.126355   -4273.9226 
41550000    46.295763    -4665.699   -4586.3497    -4665.699            0    1764.3489    18.000963    23.176265    21.914081     9142.447    1126.5748    2087.9211    2078.5508   -310.46042   -184.48345   -155.56145   -4351.1034 
41551000    47.201897   -4658.6398   -4577.7374   -4658.6398            0    1914.9466    17.901408    23.212375    21.941622    9117.4939     1991.298    1854.6292    1898.9126   -83.655457   -148.34089    206.68516   -4323.1083 
41552000    45.311073   -4661.7566    -4584.095   -4661.7566            0    2302.5158    17.873737    23.217639    21.956976    9111.8369    2263.5452    2571.0069    2072.9952   -273.04139    339.65736    50.074349   -4278.1211 
41553000    46.376418    -4664.413   -4584.9254    -4664.413            0    2271.2716    17.777647    23.390441    21.925884    9117.3746    2315.8157    2050.0155    2447.9836    35.235826   -189.61255    259.34732     -4282.92 
41554000    45.540349   -4657.6616    -4579.607   -4657.6616            0    2306.9758     17.84963    23.321929    21.884237    9110.1409    1974.7696    2536.7531    2409.4047    173.00296   -178.57037   -299.24329   -4273.0975 
41555000    45.296859   -4660.7854   -4583.1482   -4660.7854            0    1971.8372    17.929648    23.378224     21.78905     9133.171    2331.5017    2294.6841    1289.3258   -29.432367   -337.74913   -103.89389   -4320.5035 
41556000    46.145673   -4656.6541    -4577.562   -4656.6541            0    1531.8866    17.889096    23.257532    21.975998    9143.2507    2211.7725      1445.58    938.30719    -323.2555   -50.140869    183.17922   -4373.2927 
41557000    43.504843   -4657.1238    -4582.558   -4657.1238            0    1932.4426    17.810928     23.38346    21.933893    9135.0523    2276.3936    1899.9849    1620.9494   -318.47054   -163.62409   -340.56875   -4325.1076 
41558000    47.236097   -4664.3224   -4583.3613   -4664.3224            0     1868.215     17.97164    23.206292    21.902588    9134.5864    1602.7292    2491.6826    1510.2332   -212.32998    29.789428   -42.019094   -4334.4804 
41559000    44.772922   -4660.2458   -4583.5065   -4660.2458            0    1788.8366    17.971566    23.246311     21.85518    9130.4956    1464.0993    1756.4478    2145.9627   -48.346057   -126.05466   -78.681351    -4345.307 
41560000    43.394812   -4664.0227   -4589.6455   -4664.0227            0    1983.1052    17.928653    23.247687    21.885623    9121.9212    1754.9976    1624.3233    2569.9947   -112.58544     61.17688    60.712915   -4325.8253 
41561000    45.044857   -4660.1012   -4582.8958   -4660.1012            0    2095.7471    17.925867    23.296609    21.821802    9113.0441    2030.3248    1947.5842    2309.3324    -124.2448   -117.59373    7.3573592   -4304.3618 
41562000    45.488397   -4656.3913   -4578.4258   -4656.3913            0    2274.6045    17.856294    23.330032     21.86737    9109.6817    2358.4811    2069.2868    2396.0457   -239.21684   -440.74927    78.528518   -4276.2323 
41563000     47.16142   -4656.2325   -4575.3995   -4656.2325            0    2162.8995    17.883017    23.279393    21.901772    9117.8342    1934.6498    2374.3836    2179.6652    394.65108   -167.23611    217.99041   -4287.7895 
41564000    45.112574   -4659.5764    -4582.255   -4659.5764            0    2443.9725    17.944761    23.230151    21.840048    9104.2318    2611.8822    1986.1413     2733.894    444.07419    180.27082    335.72458   -4257.7544 
41565000    43.789791   -4662.3733   -4587.3191   -4662.3733            0    2247.4581    17.909378    23.238978    21.899692    9114.5564    2501.0909    2304.3531    1936.9303   -588.31152   -12.496572    255.36714   -4288.5725 
41566000    46.853947   -4658.9824   -4578.6763   -4658.9824            0     2849.483    17.958336     23.22558    21.813354    9098.1922    1919.8009    3808.6975    2819.9506   -464.08061   -245.29432   -37.930475   -4200.5847 
41567000    44.012318   -4664.7896    -4589.354   -4664.7896            0    2122.4517    17.843394    23.282799    21.933696    9112.2261    2172.3457    2353.7627    1841.2467    1.4401196   -111.31886   -33.507792   -4307.2962 
41568000    45.748906   -4661.5406   -4583.1285   -4661.5406            0    2091.2329     17.85607    23.331991    21.870556      9111.66    2026.0857    2252.4056    1995.2073   -470.33505   -38.034445   -42.852264   -4305.2367 
41569000    44.272587   -4665.7671   -4589.8854   -4665.7671            0    2208.7657    17.940177    23.167657    21.924964    9112.7137    2295.8462    2729.1997    1601.2512   -168.79639   -223.38147    274.23032   -4296.3413 
41570000    45.160764   -4661.8905   -4584.4865   -4661.8905            0    2079.6416    17.909994    23.273224    21.897527    9127.3996    2456.8661    2006.5358     1775.523    323.24165    209.21976    279.58493   -4307.6576 
41571000    44.649065   -4661.1521   -4584.6251   -4661.1521            0     2055.997    17.935439    23.301764    21.836945     9126.257    499.41154     2487.686    3180.8936   -46.288526    100.58407    107.25148   -4310.9779 
41572000    47.828068   -4653.1223   -4571.1466   -4653.1223            0    2616.8753    17.799768    23.272131    21.963359    9098.0694    2998.5838    2808.4449    2043.5972   -173.07284   -126.16795   -7.7371415   -4223.9239 
41573000    41.238626   -4660.1742   -4589.4926   -4660.1742            0    2324.3419    17.821887    23.324401    21.901175    9103.9861    2808.1078    2023.8592    2141.0586   -393.56509   -212.29709    99.138539   -4280.8844 
41574000    45.508088   -4663.0715   -4585.0722   -4663.0715            0    2075.0116     17.88581      23.3044    21.894055    9125.8375    2190.7548     2279.854     1754.426   -393.51561   -142.61966   -129.47513   -4308.9069 
41575000    43.895994   -4660.8128   -4585.5765   -4660.8128            0    1698.7574    17.939478    23.279171     21.88282    9138.6196    1480.4366    1675.4466    1940.3891   -311.27628    122.36282    64.584064   -4359.1706 
41576000    44.891864    -4661.994   -4585.0509    -4661.994            0    1663.7416    17.834089     23.23093     22.05398    9137.0181    1123.9912    1768.8636      2098.37    323.29515    26.699268   -72.814945   -4363.3506 
41577000    44.773849    -4663.576   -4586.8352    -4663.576            0    2070.0583       17.913    23.258422    21.901371    9124.7269    2004.6691    2695.6072    1509.8987   -365.00118   -297.63736    193.54924   -4311.3626 
41578000    46.610695   -4655.3716   -4575.4825   -4655.3716            0    2131.0033    17.942371    23.264919    21.883306    9134.7005    2041.2942    1971.4646    2380.2511    234.12497    7.4294329   -24.180448   -4291.5897 
41579000    46.224544   -4664.0234   -4584.7961   -4664.0234            0    2100.7457    17.911258    23.212023    21.948614    9125.2796    1933.0388    2741.0914    1628.1068   -740.64897    53.000681   -53.621406   -4305.2229 
41580000    47.416807   -4657.0514   -4575.7806   -4657.0514            0    2300.9292     17.93718    23.252015    21.838681    9108.3804    2348.7115    2552.9623    2001.1138    65.114639   -58.311521    95.627851   -4270.1335 
41581000    46.314379   -4662.2528   -4582.8715   -4662.2528            0    2306.0336    17.878833    23.214258    21.937599    9105.0654    1981.7708    2586.2167    2350.1133    -397.5028   -13.052543   -69.022007   -4276.6578 
41582000    45.271212   -4666.6007   -4589.0074   -4666.6007            0    1339.6304    18.047511    23.215828    21.862036    9159.9285     1236.714    1362.0418    1420.1355    218.71792   -201.89487    269.82496   -4410.0486 
41583000    43.565298   -4663.2364    -4588.567   -4663.2364            0    1507.5884    18.008569    23.266485    21.835179    9148.8545    1029.1741    1512.6597    1980.9314   -420.12541    17.749631     75.64501   -4387.4145 
41584000    47.259113   -4656.8536   -4575.8531   -4656.8536            0    2080.2577    17.883002    23.291149    21.908037    9125.0402    2467.7958    1881.0916    1891.8857    81.837514    43.947617    -21.05943   -4299.0138 
41585000    46.386246   -4662.5258   -4583.0213   -4662.5258            0    2524.4557    17.814743    23.306171    21.935032    9107.2813    2877.2569    2200.8259    2495.2842   -344.15769     165.4996   -291.54819   -4247.7222 
41586000    44.538793   -4658.7004   -4582.3624   -4658.7004            0    2249.9621    17.919249    23.289177    21.862825     9123.894    2133.3835     2039.972     2576.531    225.65194   -105.05841   -182.00289   -4282.9765 
41587000    44.242227   -4660.6205   -4584.7908   -4660.6205            0    2553.8411    17.953963    23.190537    21.843319    9094.7291    2299.4114    3055.4936    2306.6183   -19.833357    119.22218   -87.534697   -4246.0563 
41588000    47.041161   -4656.6234   -4575.9965   -4656.6234            0    2850.4152    17.817201    23.298291    21.876236    9081.0517    2575.8712    2462.0931    3513.2812    205.07279    84.493424   -45.950048   -4198.4937 
41589000    43.710197   -4662.5697   -4587.6519   -4662.5697            0    2129.5168    17.823564    23.276243    21.949163    9105.9531    2765.1447    1732.3057       1891.1    60.885462   -214.26115   -146.75582     -4304.85 
41590000    44.803614   -4658.3902   -4581.5984   -4658.3902            0    2266.6294    17.782322    23.391515    21.898261    9108.7011    3331.9949    1350.7855    2117.1079   -172.44298   -81.957497    17.447452   -4280.4969 
41591000    45.272722   -4665.7821   -4588.1862   -4665.7821            0    2773.4269     17.91394    23.217325    21.846578    9086.2925    2322.5744    2838.4287    3159.2778    98.451194    394.73349   -54.940263   -4220.6676 
41592000    46.480582   -4660.2339   -4580.5678   -4660.2339            0    2527.9062    17.878744    23.334614    21.855319    9117.8986    2238.1486    2172.3801    3173.1899   -233.97881   -146.12372    416.88398    -4244.419 
41593000    41.553478    -4657.597   -4586.3758    -4657.597            0    2488.6591    17.810199    23.323501    21.910623    9101.5893    3110.9556    1960.6446    2394.3769   -605.23665    -15.53265    103.13471   -4256.0378 
41594000    43.718311   -4660.2863   -4585.3546   -4660.2863            0    1937.5625    17.961162    23.164974    21.921137    9120.7242    2365.1906    2414.9782    1032.5186    213.76639    7.8152821    122.82492    -4327.627 
41595000    43.018757   -4660.4296    -4586.697   -4660.4296            0    2397.1387    17.882158    23.222599    21.938792    9110.5263    2673.5803    2595.8078    1922.0279   -427.20103   -534.60446    4.0647853   -4268.1947 
41596000    46.108336   -4660.2506   -4581.2225   -4660.2506            0    1948.2911    17.937474     23.26457    21.846277     9116.618    1846.0441    1492.9895    2505.8398    271.91185   -122.86736     -106.422   -4322.1845 
41597000    45.722905   -4661.4115    -4583.044   -4661.4115            0    1826.9296    17.959954    23.221087    21.906108    9135.9346    1250.4627    2009.7042    2220.6219    22.158428    529.88041    217.02736   -4339.6271 
41598000    44.248707   -4665.1464   -4589.3056   -4665.1464            0    2583.5504    17.898009    23.298238    21.824409    9100.6059    2207.3998    2852.0329    2691.2184    165.48587   -133.65696   -61.691876    -4246.409 
41599000    48.413242   -4665.5231   -4582.5445   -4665.5231            0    2140.6968    17.886713    23.210918    21.940015    9108.7708    2331.8275    2897.2171    1193.0458    149.64512     220.8327    283.24451   -4298.1698 
41600000    44.020967   -4660.3418   -4584.8914   -4660.3418            0    2236.9651    17.789188     23.29445    21.991305    9112.9624     2799.495    2132.0345    1779.3658    270.57955    11.174916    8.6801169   -4287.5915 
41601000    45.646465   -4667.5422   -4589.3057   -4667.5422            0    2666.2507    17.926789     23.17199    21.893488    9094.5415    2815.2029    2655.7048    2527.8443   -484.41258    185.07082    137.13095   -4235.6687 
41602000    47.379773    -4662.088   -4580.8807    -4662.088            0    2260.3564    17.878007    23.265268    21.908179    9112.4141    1743.8714    2743.5342    2293.6638   -375.70292    -208.5796    307.96607   -4280.4902 
41603000    46.301938   -4659.5611   -4580.2012   -4659.5611            0    2860.8505    17.769238    23.310745    21.906221    9073.8671     3277.067    2794.6557    2510.8288   -88.958362   -389.66798    185.11807   -4201.6161 
41604000    44.508168   -4659.5736   -4583.2881   -4659.5736            0    2529.5426    17.831883    23.239405    21.957911    9099.4099    3135.4015    2614.5065    1838.7198    107.93904    59.965117    -68.69074   -4247.6038 
41605000    44.400827   -4656.8489   -4580.7474   -4656.8489            0    2561.3852    17.975993    23.178198    21.835427    9097.7551    2847.8983    1924.0832    2912.1742   -335.27717    181.78769   -64.860051   -4240.8991 
41606000    43.472764   -4662.7473   -4588.2365   -4662.7473            0    2317.2918    17.932324    23.268853    21.840658    9113.3336    1878.7561    2405.6796    2667.4398    51.633707    119.13371   -187.38947   -4280.2484 
41607000    44.976122   -4662.0815   -4584.9939   -4662.0815            0    2329.3064    17.954996    23.106578    21.910286    9090.1069    1727.8013    2711.3565    2548.7614    17.086701    114.26145     126.5336    -4276.198 
41608000    44.183864   -4658.6396     -4582.91   -4658.6396            0     2108.222    18.003149     23.15251    21.858828    9111.1548    1591.5934    2685.2603    2047.8124    458.52125    12.875445    156.12456   -4302.7761 
41609000    46.106369   -4664.0269   -4585.0022   -4664.0269            0    2209.9013    17.952902     23.20712    21.879626    9115.8213    2269.4872    2603.2939    1756.9227   -170.25835   -154.21188    281.04894    -4291.207 
41610000    45.077603   -4661.3433   -4584.0818   -4661.3433            0     2324.798    17.852789    23.249035    21.918928    9097.6729    2432.9508    2495.2717    2046.1714   -298.16202   -174.06894    468.10596   -4275.6271 
41611000    47.385462   -4664.4947   -4583.2776   -4664.4947            0    2249.7241    17.893703    23.269544    21.894596    9116.4351    2290.3503    2068.7582    2390.0638    376.43177    37.296845   -187.26581   -4284.1681 
41612000     44.52085   -4658.1878   -4581.8806   -4658.1878            0    2077.5315    17.738878    23.410568    21.911906    9099.5153    2624.1316    1902.0491    1706.4137    8.5305864    20.522516   -12.961457   -4306.1775 
41613000    46.998663   -4663.8904   -4583.3363   -4663.8904            0    2233.5434    17.992346    23.142912    21.861124    9102.8688    1489.7829    3180.8809    2029.9663   -90.979019   -84.938729    52.887988     -4286.82 
41614000    45.804811   -4654.3957   -4575.8878   -4654.3957            0    2289.7545    17.935585     23.23445      21.8224    9093.9058    1977.8955    2545.8216    2345.5463      340.002   -36.232597    345.52782   -4272.2085 
41615000    47.417414    -4661.698   -4580.4262    -4661.698            0     2375.176    17.856682     23.17715    22.000512    9105.2859    2366.9797    2742.0066    2016.5416    259.74737   -186.89737    17.907026   -4265.0236 
41616000     45.06561   -4662.6875   -4585.4466   -4662.6875            0    2321.5097    17.796214    23.305751    21.967745    9111.2133    2263.9513    2225.3257    2475.2522   -129.06719   -148.53042    -158.3384   -4276.9697 
41617000    43.259004   -4661.1448   -4587.0004   -4661.1448            0    2713.6485    17.772636    23.237842    21.958477    9068.8009    3080.3118    2672.4628    2388.1708    241.90529    212.78187    92.643947   -4228.0955 
41618000    43.378101   -4662.6197   -4588.2711   -4662.6197            0     2173.527    17.886765    23.342274    21.809293    9105.7677    2289.9396     2271.494    1959.1474    257.26466   -393.93643    153.38069   -4299.6305 
41619000     46.96583   -4661.8574   -4581.3596   -4661.8574            0     2505.206    17.944715    23.166957    21.880998    9096.4662    2112.3058    2867.7177    2535.5947   -538.18954   -55.192033    306.82222   -4249.0124 
41620000    45.265646   -4663.1864   -4585.6027   -4663.1864            0    2594.3932     17.88346    23.260144    21.838119    9084.0429    2521.6456     2824.491    2437.0428   -346.71479   -28.984452    21.398876   -4241.8937 
41621000    44.974225   -4662.4988   -4585.4145   -4662.4988            0    2258.7591    17.826923     23.37494    21.843042    9102.0667    2289.8191    2111.6261    2374.8321   -214.29894   -139.31598   -164.48474   -4285.5771 
41622000    47.399039   -4660.4728   -4579.2324   -4660.4728            0    1744.7521    17.902413     23.34282    21.855058    9133.0718    1064.0434    2172.7214    1997.4914   -229.92276   -71.472737   -93.261016   -4346.8376 
41623000    42.753675    -4662.661   -4589.3827    -4662.661            0    1721.9217    17.927547    23.237332    21.933212    9137.1208    1741.1987    1614.3326    1810.2338   -15.868308   -55.527795    78.707744   -4359.9271 
41624000    46.683977   -4659.7216   -4579.7069   -4659.7216            0    1695.3012    17.838532    23.413384    21.860182    9130.1325    1615.8926    1704.8764    1765.1347    152.77566    73.378779   -33.823061   -4353.9714 
41625000    47.259155   -4658.0106     -4577.01   -4658.0106            0    1945.3399    18.001664    23.249793    21.795619    9122.2283    1697.4624    2233.6984     1904.859   -243.40407   -15.078598   -202.65799   -4318.2052 
41626000    46.380713   -4663.6985   -4584.2036   -4663.6985            0    2083.9247    17.913202    23.248856    21.895151    9118.4866    2204.3839    2413.0719    1634.3183    404.42947    -81.09117    203.47239   -4307.0754 
41627000    44.686261   -4658.0881   -4581.4973   -4658.0881            0     2071.199    17.785003    23.345095    21.978497    9125.3089    2647.5519    2155.9512    1410.0937   -182.33624   -292.61029    -11.91025   -4305.8554 
41628000    47.597388   -4665.5522   -4583.9719   -4665.5522            0    1960.0464    17.989796    23.187075    21.889463    9130.7682    2243.8523    1938.1307    1698.1561   -134.83904    49.937202   -108.53933   -4322.9665 
41629000    46.801576   -4658.7923    -4578.576   -4658.7923            0    1965.7857    17.959916    23.214032    21.878741    9121.7298    2370.8222    1767.3873    1759.1476    438.39965    11.042698   -336.34186   -4317.0654 
41630000      44.6363   -4664.4653   -4587.9602   -4664.4653            0    1925.8517    17.938137    23.179886    21.942285    9123.6893    1905.4581    2141.7341    1730.3627   -285.30199   -405.31076    145.51238    -4331.707 
41631000    43.572029   -4663.4258   -4588.7448   -4663.4258            0    2107.5194    17.886706    23.261895    21.941107     9129.227    2077.5096    2101.9022    2143.1464    -308.8407    -209.0259   -4.9494531   -4308.1488 
41632000    47.808249   -4659.5762   -4577.6345   -4659.5762            0    2112.7525    17.985883    23.159983    21.911587    9127.3322    1771.3593    2315.4943    2251.4038    -210.8707     341.6525   -73.633043   -4296.4001 
41633000    44.250402   -4661.9855   -4586.1418   -4661.9855            0    2022.2122    17.877727    23.260519    21.923638    9116.8399    2060.3376     1792.432    2213.8669    -552.6921    472.01383   -112.59858    -4317.269 
41634000    44.914281   -4663.6217   -4586.6401   -4663.6217            0    2436.0887    17.813211    23.314528    21.929347    9107.4026    2767.2352    2486.1942    2054.8367    477.08247    85.688612    356.31832   -4263.0736 
41635000    43.732121   -4662.5443    -4587.589   -4662.5443            0    2664.2023    17.911767    23.147903    21.901276    9080.7039    2116.3713    3412.7662    2463.4694    321.47663    -18.75296    370.89296   -4234.7613 
41636000    44.566032   -4659.5225   -4583.1379   -4659.5225            0    1997.9791     17.87882    23.279849    21.938949    9131.3463    1775.0077     1946.705    2272.2247   -264.08585   -62.397442    24.053177   -4317.0643 
41637000    45.018926   -4663.0073   -4585.8464   -4663.0073            0    2485.8846    17.948765    23.243313    21.804646    9096.6533    1621.9859    2615.4611     3220.207   -79.044884    31.251742    -45.02148   -4256.0557 
41638000    45.505372   -4660.7131   -4582.7184   -4660.7131            0    1927.1028    17.944543    23.248124    21.893547    9133.4835    2046.4072    2566.6058    1168.2954    490.44431    51.679623    98.979474   -4326.0235 
41639000    42.962632   -4663.9778   -4590.3413   -4663.9778            0    2455.8289    17.807401    23.219548    22.005654    9098.8933    2747.8303    3083.2344     1536.422   -435.04753   -312.24806   -41.523977   -4264.4577 
41640000    44.819591   -4660.9299   -4584.1106   -4660.9299            0     2330.845     17.89435    23.305744    21.836988    9106.9224    2171.0639    2283.6001    2537.8711     3.774963   -81.092776   -161.82249   -4274.5392 
41641000    44.252364   -4664.1265   -4588.2795   -4664.1265            0    1952.3092    17.894981    23.278675    21.886438     9117.265    1902.6447    2140.2278     1814.055   -231.26265    111.80482    57.332149   -4328.6888 
41642000    44.034921   -4662.6465   -4587.1722   -4662.6465            0    1850.9129    17.961731    23.241188     21.86696    9128.4057    1903.9342    2024.1735     1624.631   -226.16219    109.27082     344.4678    -4340.763 
41643000    43.401517   -4662.0102   -4587.6215   -4662.0102            0    1560.3738    17.916892    23.292226    21.894513    9137.1123     1475.227    2014.4485    1191.4459    458.92313    259.10113     367.9897   -4379.6933 
41644000    44.125575    -4660.431   -4584.8013    -4660.431            0     1846.744    17.857032    23.324079    21.911135    9125.9621    1695.1871    1829.2895    2015.7555     29.88974   -79.908655    190.14049    -4339.013 
41645000    43.941679   -4654.3393   -4579.0248   -4654.3393            0    2206.3665    17.939407    23.348745    21.775115    9120.7822    2048.7994    1997.9884    2572.3116     150.9756    78.341986    314.73833     -4285.54 
41646000    46.035428   -4666.8927   -4587.9896   -4666.8927            0    2025.5001    17.902783    23.321581    21.848282    9122.1209    2073.9338    1310.6828    2691.8835   -436.10435    380.50398    100.34796   -4318.5236 
41647000    41.200337   -4660.9632   -4590.3472   -4660.9632            0    2074.2467    17.877992    23.338014    21.874336    9126.7785    1896.6351    2348.9251    1977.1801   -68.596381    24.758387    387.03991   -4314.2552 
41648000    42.588235   -4663.5023   -4590.5075   -4663.5023            0    1662.4082    17.901329    23.311775    21.905561    9141.4483    1252.3635    1811.3331    1923.5279    302.17329    177.75188    289.58228   -4368.8775 
41649000    46.735717   -4657.8441   -4577.7406   -4657.8441            0    1850.5478    17.892207    23.224764    21.968483    9128.8338    2001.9255     1827.683    1722.0348   -467.68247   -206.18517   -95.480022   -4331.3686 
41650000    42.774704   -4657.8904    -4584.576   -4657.8904            0    2142.3231    17.885437     23.14337    22.002815    9107.6094    2283.0544    2495.8623    1648.0526   -43.231961   -201.83534    279.75299   -4300.0217 
41651000    47.114476   -4659.8301   -4579.0775   -4659.8301            0    2074.8161    17.864778    23.327422    21.878318     9117.553    1974.4775    2840.7167    1409.2542  -0.46022616    21.423456    231.81995   -4303.1888 
41652000    42.588087   -4661.8838   -4588.8893   -4661.8838            0    2443.6975    17.925552    23.256396    21.805546    9090.3772    2207.9434    2181.5318    2941.6173    347.43521    393.71357    9.5285228   -4264.9189 
41653000    43.743116    -4655.281   -4580.3068    -4655.281            0    2312.4779    17.870725    23.305963    21.857641    9103.5864    2746.6247     1659.428    2531.3812   -693.29483    53.215031    97.468267   -4273.2872 
41654000    45.198651   -4663.7859    -4586.317   -4663.7859            0    2888.3807    17.847004    23.271836    21.879431    9087.2402    3343.0142    2789.6258     2532.502    233.16339    132.08283    25.478792   -4203.5255 
41655000    45.132641   -4663.6878    -4586.332   -4663.6878            0    2088.7867    17.897035    23.310189     21.86216    9120.5273    2247.8151    1466.1439    2552.4011   -372.01455    68.681143   -40.828407   -4308.4951 
41656000    40.550846   -4664.2242   -4594.7214   -4664.2242            0    1801.6824    17.959999    23.292494     21.82478    9130.0292    2258.2994    1187.8757     1958.872    60.453373    79.778485   -28.552901   -4354.8236 
41657000     43.91435   -4661.5594   -4586.2917   -4661.5594            0    1988.6572    17.904661     23.27194    21.896485    9123.7438    2428.8737    1941.9389    1595.1589     90.99911   -68.471814   -80.859273   -4321.6801 
41658000    44.428264   -4662.9668   -4586.8183   -4662.9668            0      2273.84    17.822759    23.299487    21.940262     9110.938    2295.8115    1657.4673    2868.2411   -251.64826    89.738333    225.41697   -4284.6848 
41659000    44.902877   -4662.4229   -4585.4609   -4662.4229            0    2193.8002    17.936947    23.252593    21.854711    9115.1745    1982.2655    2146.9898    2452.1452   -393.82929   -62.821112    407.11855   -4293.8271 
41660000    46.661394   -4659.5346   -4579.5586   -4659.5346            0    2063.7466    17.932078    23.257152    21.883435    9126.4662     2309.299    2058.0437     1823.897   -297.84618   -111.86403   -26.361543   -4304.8736 
41661000    43.454221   -4665.1929   -4590.7138   -4665.1929            0    1753.4986    17.890612    23.257882    21.943914    9130.8131    1797.2584    1626.2902    1836.9471   -610.99128    -69.45339    -138.4497   -4357.2117 
41662000    45.281468   -4663.5279    -4585.917   -4663.5279            0    1854.1521    17.992831    23.216869    21.841034    9123.8125    1536.2188    2081.2872    1944.9503    -2.306206    123.02565   -140.24157   -4339.2009 
41663000    46.171582   -4662.2672   -4583.1307   -4662.2672            0    1936.3784    17.977904    23.267875    21.785181    9112.9075    1650.7814    2177.9703    1980.3835   -149.70723    -322.0421    187.24554   -4325.7814 
41664000     44.62241   -4663.5987   -4587.1174   -4663.5987            0    1635.8996    17.879697    23.352962    21.876927     9134.577    2023.5396    1529.4332    1354.7258   -362.92393    -157.0233    225.28183   -4369.1854 
41665000    45.385509   -4660.9857   -4583.1965   -4660.9857            0    2300.6877    17.885157    23.245657    21.882048      9097.51    2393.8749    2036.3999    2471.7883   -35.797095    185.46354   -434.60296   -4277.9462 
41666000    45.764295    -4660.273   -4581.8346    -4660.273            0     2077.279    17.774521    23.442825    21.869801    9112.8177    2743.1118    1338.4767    2150.2484     96.25443   -40.741525    123.11051   -4305.7619 
41667000    43.927324   -4664.1165   -4588.8266   -4664.1165            0    2009.3176    17.917935     23.44735    21.702025    9117.6302    1487.3808    1273.0913    3267.4808   -300.28482     195.2795    80.741555   -4321.6451 
41668000     46.58806   -4656.9425   -4577.0921   -4656.9425            0    1903.1001    17.971465    23.174484     21.89875    9120.3786    1173.9124    2470.7816    2064.6063   -19.595057   -374.82684   -331.54463   -4323.9582 
41669000    45.981339   -4658.0391   -4579.2286   -4658.0391            0    1827.9955    17.897121    23.241334    21.954316    9131.9626    1522.2989    2070.9907    1890.6968    -317.3588   -123.61077   -83.163662   -4335.7756 
41670000    44.176697    -4660.694   -4584.9766    -4660.694            0    1984.8096    17.923582    23.246529    21.882074    9117.4083     1457.773    2346.9355    2149.7205   -71.876092   -35.097109   -303.89749   -4321.0604 
41671000    42.972885   -4658.2925   -4584.6385   -4658.2925            0    2626.5598    17.862745    23.363417    21.803665     9099.427    2760.4963    2191.5691    2927.6139   -644.72395    102.55363   -57.883684   -4236.0787 
41672000    43.636807   -4661.4872   -4586.6952   -4661.4872            0    1573.5379    17.901203    23.379734    21.853289    9146.1553    1669.4615    944.14588    2107.0063   -407.05436   -110.02964    195.09312   -4376.8052 
41673000    42.508301   -4658.1686   -4585.3108   -4658.1686            0    1974.0872    17.861367    23.233477    21.983887    9122.9101     1543.888    2495.5069    1882.8666   -141.56446    89.131589   -407.72029   -4322.6619 
41674000    43.267849   -4660.5328   -4586.3732   -4660.5328            0    2188.8047    17.871383    23.373276     21.81008    9110.3487    2265.8043    2524.0326    1776.5772   -9.1900476     355.6047   -34.507488   -4295.5574 
41675000    46.312183   -4659.8396   -4580.4621   -4659.8396            0    2532.7371    17.893549    23.286167    21.832959    9097.1862    2360.5972    2919.3633    2318.2509   -212.69656   -60.228717    557.87386    -4244.436 
41676000     44.98675   -4662.2307   -4585.1249   -4662.2307            0    2642.0807    17.966499    23.222085    21.787162    9090.0302    1632.4773    3715.3798    2578.3848   -104.39915   -141.75644    292.85033   -4234.8676 
41677000      46.4589   -4659.3973   -4579.7684   -4659.3973            0    2185.4253    17.909671    23.348423    21.800926    9116.3316    1913.0195    1580.6071    3062.6494    564.07452   -69.800768   -145.22049   -4289.2109 
41678000    45.465735   -4658.6983   -4580.7716   -4658.6983            0    2239.5714    17.821112    23.347007    21.889244    9107.4496    2129.1634     1498.646    3090.9048    -323.4753    72.609858   -464.57277   -4283.3054 
41679000    45.515368   -4662.2031   -4584.1913   -4662.2031            0    2147.0231    17.906027    23.295314    21.839432    9109.8063    2318.4308    2309.4456     1813.193   -65.476733   -371.33267    105.60024   -4298.9439 
41680000    43.750278   -4660.8873   -4585.9008   -4660.8873            0    1687.6271    17.938941    23.237309    21.889299    9124.6135    1129.3409    1699.1309    2234.4094    107.21033   -338.95042    303.47764    -4361.323 
41681000    47.151547   -4665.0417   -4584.2256   -4665.0417            0    1268.4949    17.933686    23.265936    21.933778    9151.7375    1657.6308    1760.0842    387.76969    297.14746    144.30134   -317.05099   -4414.9212 
41682000    46.088919   -4657.2963   -4578.3015   -4657.2963            0    1935.0983    17.862708    23.305343     21.91803    9124.4003    2122.6342    1655.8202    2026.8407    356.76386   -36.503125   -30.075028   -4320.7979 
41683000     44.62619   -4663.0455   -4586.5578   -4663.0455            0     1993.425    17.796824     23.41527    21.884659    9119.7189     2391.835    1533.2962    2055.1439   -110.92152    189.32794   -187.91157   -4321.4288 
41684000    43.240091   -4661.9371   -4587.8251   -4661.9371            0    2444.1879    17.847111    23.329754    21.859785    9101.7304    2549.0293    2966.3974    1817.1369   -10.975477   -35.526574    -61.72261    -4263.385 
41685000    45.663941   -4658.2744    -4580.008   -4658.2744            0    2108.0079    17.914829    23.309788    21.816616    9110.4193    1550.6733    2273.1128    2500.2376    371.56716     114.5458    34.476696   -4299.9251 
41686000    45.888329   -4659.4111   -4580.7601   -4659.4111            0    1982.5879    17.814818    23.440258    21.818869    9111.2087    2047.6464    1321.5123    2578.6051    55.967152    230.11999   -345.07977   -4317.3185 
41687000    45.988347    -4665.689   -4586.8665    -4665.689            0    1940.9836    17.907864     23.25202    21.912777     9124.349    2438.4605    1832.2636    1552.2268    239.64406    212.52669   -173.15071   -4328.5813 
41688000    47.862139   -4659.6191   -4577.5851   -4659.6191            0    2111.8188    17.874767    23.252842    21.910792    9106.9823    2145.7731    2403.0234    1786.6598   -596.77309    217.17566    92.192114   -4297.1017 
41689000    44.889901   -4664.4768    -4587.537   -4664.4768            0    2092.3664      17.8257    23.297532    21.931959    9108.2291    2049.9341     1951.678     2275.487   -665.11457   -192.38039   -103.31065   -4309.5992 
41690000    47.462695   -4658.2984   -4576.9489   -4658.2984            0    2145.7744    17.869513    23.315611    21.885381    9118.2944     2224.267    2252.6684    1960.3878   -254.26534    155.54919    224.17131   -4291.6018 
41691000    45.552202    -4660.294   -4582.2191    -4660.294            0    2020.1454    17.877797    23.378345    21.829423    9123.6789    1538.0987    1605.3294     2917.008   -144.76307    138.53235   -138.79222   -4313.4195 
41692000    48.081605    -4664.558   -4582.1477    -4664.558            0    1971.6926    17.935344     23.17699    21.941262    9120.7041    2211.1506    2323.6592    1380.2679   -396.24125   -244.49777   -122.68126   -4319.8808 
41693000    43.044474   -4656.7716   -4582.9949   -4656.7716            0    2119.6727    17.869929    23.347198     21.83974    9111.8186    2161.9734    2061.5213    2135.5234     -215.015    60.398156   -325.73911    -4301.319 
41694000    45.846051   -4657.4261   -4578.8476   -4657.4261            0    1620.9808    17.901171    23.364684    21.875758    9149.6499    1578.4603    1347.0613    1937.4209    236.31604    89.181321     375.4272   -4362.5467 
41695000    44.328434   -4658.8558   -4582.8784   -4658.8558            0    2599.3724    17.897521    23.290725    21.824383     9097.412    2753.4443     2891.941     2152.732    -198.7631    -126.6403    546.13609    -4238.003 
41696000    45.330623    -4659.908   -4582.2128    -4659.908            0    2797.8494    17.910636    23.237243    21.826058    9083.8698    3043.6819    2610.6389    2739.2275   -127.71423    134.67023    240.79693   -4211.5567 
41697000    43.918153   -4656.8313   -4581.5571   -4656.8313            0    2341.7875    17.898536    23.259108    21.858854    9099.9281    1879.8688    2051.6712    3093.8224   -197.92585   -348.53492   -30.725535   -4270.7712 
41698000    46.180551   -4660.6059    -4581.454   -4660.6059            0    2815.7205    17.815242    23.376622    21.820584    9087.4042    3327.9827    2343.4968    2775.6821    26.159573   -199.86959    76.940741   -4208.2853 
41699000    46.820095   -4659.0761   -4578.8281   -4659.0761            0    2382.3966    17.819479     23.32477    21.907147     9105.383    3454.2893    2370.8946     1322.006   -305.81512   -63.157888    178.21679   -4262.4633 
41700000    43.576713   -4657.6332   -4582.9442   -4657.6332            0    2824.0585    17.820936    23.341902    21.845593    9087.2102    3015.3403    1989.6436    3467.1915    107.19326   -136.75867   -36.293193   -4208.6784 
41701000    47.072446   -4664.4944   -4583.8138   -4664.4944            0     2324.903    17.933249    23.300592    21.791125     9105.537    2013.8403    2562.1821    2398.6867   -268.18374    124.02687   -7.2295978   -4275.0785 
41702000    45.451241   -4659.7873   -4581.8855   -4659.7873            0    2132.6884     17.80346    23.414907    21.837572    9103.3493    2433.9875    1925.9523    2038.1256   -438.64742    259.80086   -149.22152   -4298.7433 
41703000    43.940566   -4662.1569   -4586.8443   -4662.1569            0    1904.9386    17.767185    23.408682    21.934735    9122.7961    2228.4704     1616.891    1869.4545   -141.03055    173.83561   -165.00156   -4333.3986 
41704000    44.663426   -4665.1762   -4588.6246   -4665.1762            0    1828.5655    17.811668    23.297422    21.979716    9120.8334    1960.2428    2196.4714    1328.9821   -96.049115    107.41226    251.57713   -4345.3925 
41705000    43.573569   -4663.9378   -4589.2542   -4663.9378            0    2153.9051    17.918129    23.348492    21.789025    9115.6847    2059.1587    1994.3378    2408.2187    221.14193    158.34081   -54.380511   -4302.9078 
41706000    45.570081   -4666.3742   -4588.2687   -4666.3742            0    1878.3109    17.822675    23.444599    21.851142    9130.4005    1818.9269    1596.4283    2219.5776    -439.6717   -251.36759    59.329683   -4338.1574 
41707000    47.000484   -4665.1265   -4584.5693   -4665.1265            0    2170.5565    17.815165     23.29518    21.957468    9112.5135    2118.2029    2247.1769    2146.2898    704.39263   -64.805187     291.7632   -4296.1096 
41708000    46.652344   -4660.8064   -4580.8459   -4660.8064            0    1758.6451    17.982755    23.298632    21.809291    9137.5167     1736.906    1867.0162    1672.0129   -624.40708    281.54341    100.22686   -4346.4866 
41709000     45.98488   -4661.6821   -4582.8656   -4661.6821            0    2351.5654    17.938084    23.209054    21.861646    9101.5708    2458.0762    2631.9315    1964.6886   -47.927642    151.77375   -97.548049   -4270.7257 
41710000    47.730434    -4660.206   -4578.3977    -4660.206            0    2466.9566    17.866934     23.30575    21.888578    9114.4541    2359.1568    1746.3955    3295.3175   -137.84605   -87.569753    118.53347   -4250.4775 
41711000    44.585219   -4662.0846   -4585.6671   -4662.0846            0    2405.0475    17.933694    23.260753    21.849771    9114.6591    2035.5204     2119.737    3059.8853   -193.72881   -74.847867    181.65591    -4265.969 
41712000    44.010986   -4658.3505   -4582.9172   -4658.3505            0    2495.1793    17.914253     23.32256    21.773232    9096.9918    2281.1806    2389.5449    2814.8125   -354.40517   -69.838278   -59.840789    -4251.881 
41713000    46.215596   -4659.7346   -4580.5227   -4659.7346            0    2506.3933    17.968198    23.144261    21.906438    9110.0258    2329.3157    3061.6878    2128.1764    -425.2489   -174.24188   -121.73023   -4247.5223 
41714000    44.241058   -4661.2616    -4585.434   -4661.2616            0    2238.5252    17.840933    23.278852    21.965225    9122.5191    2396.7507    1848.8104    2470.0146    201.60283   -536.91154   -168.79411   -4287.6148 
41715000    43.431296   -4667.1481   -4592.7083   -4667.1481            0     2330.236     17.85259    23.237764    21.960996    9110.6134    2167.2962    2605.1001    2218.3119    -37.88778   -25.262662   -74.486103   -4283.0923 
41716000     45.45424   -4664.5143   -4586.6073   -4664.5143            0    2250.2578    17.889963    23.282954    21.875065    9111.6465    2291.9479    2261.3311    2197.4946   -107.09445    -118.9761   -191.59318    -4287.584 
41717000     44.10607   -4663.7301   -4588.1338   -4663.7301            0      2067.81    17.972094    23.196317    21.880591    9121.7209     1507.936    2596.4054    2099.0886   -435.36616    127.84389  -0.31548912   -4313.0511 
41718000    44.736426   -4658.4733   -4581.7966   -4658.4733            0    2626.2955    18.040116    23.096696    21.844507    9101.8867    2489.3303    2768.6007    2620.9556    58.366124   -167.06288   -207.77629   -4233.1777 
41719000    44.900086   -4658.4652    -4581.508   -4658.4652            0    2279.2423    17.849063    23.242781    21.960298    9110.4904    2014.3195    2513.1396    2310.2679    261.24686   -138.87633    149.80856   -4278.6715 
41720000    42.002898      -4660.7   -4588.7085      -4660.7            0     2270.708    17.899274    23.233558     21.89993    9107.3886    1798.5737    2516.7432    2496.8071     60.22096   -23.975383    144.09725   -4287.1087 
41721000    44.834241   -4662.1821   -4585.3378   -4662.1821            0    2270.5607    17.850174    23.344705    21.850948    9105.4441    2795.7124    2048.0859    1967.8838   -518.66629    107.78352   -439.80683   -4283.8219 
41722000    43.803026   -4663.6604   -4588.5835   -4663.6604            0    2460.8724    17.766557    23.314359    21.982637    9105.5576    3183.2302    2296.4005    1902.9866    127.49876   -33.504528   -370.58314   -4261.7914 
41723000      44.8981   -4663.8093   -4586.8555   -4663.8093            0    2108.4228    17.877955    23.293004    21.914969    9126.0784    2121.3671      2137.75    2066.1513    372.07289    -282.3723    311.52481    -4306.236 
41724000    45.497155   -4662.0998   -4584.1193   -4662.0998            0    2477.3602    17.953305    23.244991    21.819797    9105.9339    2266.6671    2728.1696    2437.2439    657.74434    386.40256   -111.47056   -4255.1241 
41725000    44.752137   -4665.0443   -4588.3407   -4665.0443            0    2261.6119    17.880053    23.267109    21.881764     9103.189    2018.4343     2691.816    2074.5855    -164.5629    173.88512    58.150852   -4288.0876 
41726000    44.773442   -4661.3403   -4584.6002   -4661.3403            0    2215.3998    17.984814    23.146508    21.872083    9105.0341    1701.8444     2165.868     2778.487   -676.74569   -12.838445   -7.9496835   -4290.4226 
41727000     46.95821    -4654.927   -4574.4422    -4654.927            0     2036.737    17.878456    23.247851    21.960548    9127.5876    1314.2731     2040.691    2755.2469    38.781392   -493.25578   -170.45425   -4303.3189 
41728000    46.607685   -4659.2846   -4579.4006   -4659.2846            0    2291.0855      17.9088     23.22897    21.921728     9119.504    2497.2775     2251.876     2124.103      10.9397    -235.7576    227.69713   -4274.6894 
41729000     46.05495   -4659.6162   -4580.6796   -4659.6162            0    2532.9866    17.818747     23.35589    21.841255    9089.7341    2645.1355    1542.5073    3411.3171    70.578129    104.46783    159.90401   -4244.8956 
41730000    46.312612   -4658.2561   -4578.8779   -4658.2561            0     2187.476    17.908784    23.251843    21.898975    9119.0008    2855.9981    1736.9069     1969.523   -161.56846   -90.136708   -380.91376   -4287.9626 
41731000    44.941137   -4658.4443   -4581.4167   -4658.4443            0    1817.4557    17.900204    23.304327     21.90486     9137.661    1779.1729    1941.6048    1731.5895   -324.26995   -332.73951    45.681939   -4339.2164 
41732000    46.195987   -4663.0784      -4583.9   -4663.0784            0    1302.8778     17.89312    23.372834    21.915871    9165.5009    1458.3415    1523.5676    926.72449   -116.69779   -212.61011     141.7592   -4409.7451 
41733000    43.608788   -4662.3992   -4587.6552   -4662.3992            0    1811.9281    17.921059    23.219312    21.956604    9136.4648    2108.3405     2010.297    1317.1468    24.318383    60.614232   -112.63733   -4346.2231 
41734000    45.982602   -4659.5599   -4580.7473   -4659.5599            0    1609.8445    17.928216    23.298337    21.870876    9135.4128    1553.2691    1413.2412    1863.0232    306.97287   -69.598522    359.05982   -4366.2667 
41735000    43.782504   -4663.6737   -4588.6319   -4663.6737            0     1398.694    17.894788    23.295397    21.941232    9146.5576    2240.8688    1028.6806    926.53261   -7.4910853    92.335331     280.5675   -4402.0557 
41736000     44.17081   -4660.3849   -4584.6777   -4660.3849            0    1940.8693    17.943989    23.221803     21.88151    9117.8456    1657.8487    2087.1753    2077.5839    77.401577    21.223268   -36.960692   -4326.5917 
41737000     46.28432   -4664.7343   -4585.4046   -4664.7343            0    1901.9394    17.943688    23.227379    21.896095    9125.9605     1607.394    1629.3168    2469.1073   -138.09421    116.65926   -180.90242   -4332.2702 
41738000    45.453778   -4658.9996   -4581.0934   -4658.9996            0    2214.5622    17.933346    23.252792     21.86702    9118.5554    2327.8307    2147.3438    2168.5122    393.11383   -2.6768376    43.378762   -4286.5903 
41739000    45.693091   -4662.0442   -4583.7278   -4662.0442            0     1767.153    17.878114    23.364449    21.872395    9136.3682    2393.4311    815.87076     2092.157   -12.542933    191.65696    70.597648   -4348.2643 
41740000    45.282313   -4659.9454   -4582.3331   -4659.9454            0    2497.1387    17.838694    23.301212    21.920943    9111.7295    2637.4871    2399.7583    2454.1708   -287.10441    236.94027    -62.47843   -4250.5002 
41741000    43.193411   -4661.6053   -4587.5733   -4661.6053            0    2394.0727    17.854318    23.310841    21.893364    9111.9998    2128.5343    2705.2214    2348.4623   -71.700277   -356.05471    93.544705   -4269.4269 
41742000    46.200698   -4663.3015   -4584.1151   -4663.3015            0    2765.3674    17.797679    23.417564    21.800584    9086.0098    2965.2503    2802.2476    2528.6042   -169.58607    74.265975    278.05112   -4217.6759 
41743000    43.249942   -4653.9354   -4579.8065   -4653.9354            0    2436.9428    17.952442    23.210465    21.846561    9103.1235    2324.2196    2698.3929     2288.216   -77.835003   -132.57478    222.34859   -4256.2786 
41744000    45.730587   -4660.2241   -4581.8434   -4660.2241            0    1752.6104    17.915086    23.329361    21.838578    9127.3793    1493.1033    1510.4789     2254.249   -508.51044    171.46235    143.43304   -4348.5474 
41745000    45.790957    -4656.456   -4577.9718    -4656.456            0    1756.0665    17.859168    23.300379    21.948267    9133.2312    1559.7575    1836.0746    1872.3672   -80.856312     23.45738    -125.5866   -4344.0659 
41746000    43.678174   -4657.6443   -4582.7814   -4657.6443            0     2344.185    17.862299    23.237473    21.922354    9099.4144    2428.6462    2074.2479    2529.6608   -156.55322    46.410847    137.93899   -4271.6949 
41747000    43.994529   -4661.3041    -4585.899   -4661.3041            0    1500.8959    17.934697    23.306682    21.893916    9151.6193    1525.1253    1412.2842    1565.2782   -424.95389   -148.01937   -30.059498   -4385.5789 
41748000    46.271558   -4658.2859    -4578.978   -4658.2859            0     1936.912    17.910513    23.357148    21.810624    9124.2237    1939.7257    1344.9355    2526.0749    138.38386    234.34995   -114.57223   -4321.2381 
41749000    43.460237   -4662.5182   -4588.0288   -4662.5182            0    2345.1076    17.914893    23.304696     21.83608    9116.5885    2747.2076    1932.7615    2355.3535   -328.04162   -94.812241   -204.17166   -4276.2325 
41750000    47.677698   -4658.5258   -4576.8079   -4658.5258            0    2098.8043    17.826499    23.341084    21.906504    9115.0733    2488.9551    2425.3394    1382.1184    312.88987   -281.50811    234.28676   -4297.8055 
Loop time of 392.769 on 64 procs for 250000 steps with 864 atoms

Performance: 109.988 ns/day, 0.218 hours/ns, 636.507 timesteps/s
194.9% CPU use with 32 MPI tasks x 2 OpenMP threads

MPI task timing breakdown:
Section |  min time  |  avg time  |  max time  |%varavg| %total
---------------------------------------------------------------
Pair    | 16.991     | 25.338     | 36.901     | 117.2 |  6.45
Bond    | 0.98608    | 1.2692     | 2.1315     |  17.9 |  0.32
Kspace  | 196.26     | 211.01     | 219.55     |  43.3 | 53.72
Neigh   | 0.10696    | 0.11634    | 0.12636    |   1.4 |  0.03
Comm    | 56.499     | 62.332     | 68.105     |  37.3 | 15.87
Output  | 0.51572    | 0.516      | 0.51752    |   0.0 |  0.13
Modify  | 70.118     | 73.934     | 76.607     |  19.8 | 18.82
Other   |            | 18.26      |            |       |  4.65

Nlocal:        27.0000 ave          39 max          17 min
Histogram: 4 4 6 2 1 7 0 0 4 4
Nghost:        2160.16 ave        2270 max        2058 min
Histogram: 10 6 0 0 0 0 0 1 9 6
Neighs:        6666.91 ave        9684 max        4147 min
Histogram: 2 5 6 3 2 6 0 1 3 4

Total # of neighbors = 213341
Ave neighs/atom = 246.92245
Ave special neighs/atom = 2.0000000
Neighbor list builds = 256
Dangerous builds = 0

unfix		3
unfix		2
unfix		1

write_data	data.final.${pid} nocoeff
write_data	data.final.0 nocoeff
System init for write_data ...
PPPM initialization ...
  extracting TIP4P info from pair style
  using 12-bit tables for long-range coulomb (../kspace.cpp:340)
  G vector (1/distance) = 0.37211679
  grid = 24 27 25
  stencil order = 5
  estimated absolute RMS force accuracy = 0.0031158181
  estimated relative force accuracy = 9.3831937e-06
  using double precision FFTW3
  3d grid and FFT values/proc = 4410 672
Last active /omp style is kspace_style pppm/tip4p/omp

write_restart   restart.lmp.${pid}
write_restart   restart.lmp.0
System init for write_restart ...
PPPM initialization ...
  extracting TIP4P info from pair style
  using 12-bit tables for long-range coulomb (../kspace.cpp:340)
  G vector (1/distance) = 0.37211679
  grid = 24 27 25
  stencil order = 5
  estimated absolute RMS force accuracy = 0.0031158181
  estimated relative force accuracy = 9.3831937e-06
  using double precision FFTW3
  3d grid and FFT values/proc = 4410 672
Last active /omp style is kspace_style pppm/tip4p/omp
Total wall time: 0:06:33
