LAMMPS (30 Jul 2021)
Processor partition = 0
  using 1 OpenMP thread(s) per MPI task
using multi-threaded neighbor list subroutines
variable        pid world 0 1
variable        phase world IceII IceIII

shell cd ${phase}
shell cd IceII
include Restart.lmp
echo both
log log.lammps
#include		in.partitions
include		in.temp
variable        temperature equal 135.48
variable	tempDamp equal 100.0
include		in.pressure
variable        pressure equal 8418.8
variable        pressureDamp equal 1000.0 # This is 1 ps
include		in.seed
variable        seed equal 745823

units		real
atom_style	full
box tilt large
read_restart	restart.lmp.${pid}
read_restart	restart.lmp.0
Reading restart file ...
  restart file = 30 Jul 2021, LAMMPS = 30 Jul 2021
  restoring atom style full from restart
  triclinic box = (-10.565481 -9.1277049 0.19471225) to (12.545481 12.117703 21.665287) with tilt (-9.2791579 1.8686513 2.7695572)
  4 by 4 by 4 MPI processor grid
  restoring pair style lj/cut/tip4p/long/omp from restart
  restoring bond style harmonic/omp from restart
  restoring angle style harmonic/omp from restart
  1296 atoms
  864 bonds
  432 angles
Finding 1-2 1-3 1-4 neighbors ...
  special bond factors lj:    0        0        0       
  special bond factors coul:  0        0        0       
     2 = max # of 1-2 neighbors
     1 = max # of 1-3 neighbors
     1 = max # of 1-4 neighbors
     2 = max # of special neighbors
  special bonds CPU = 0.005 seconds
  read_restart CPU = 0.013 seconds
include 	in.setup
variable	out_freq equal 1000
variable	out_freq2 equal 10000
variable	out_freq3 equal 1000

timestep	2.0

neigh_modify    delay 7 every 1

include		in.tip4p
# This is TIP4P/Ice

# create groups ###
group ox type 2
432 atoms in group ox
group hy type 1
864 atoms in group hy

# set charges - beside manually ###
set group ox charge -1.1794
Setting atom values ...
  432 settings made for charge
set group hy charge 0.5897
Setting atom values ...
  864 settings made for charge

# ### TIP3P Potential Parameters ###
pair_style lj/cut/tip4p/long/omp 2 1 1 1 0.1577 8.5
pair_coeff 1 1*2 0.000 0.000
pair_coeff 2 2 0.21084 3.1668
bond_style  harmonic
bond_coeff  1 450 0.9572
angle_style harmonic
angle_coeff 1 55 104.52
kspace_style pppm/tip4p/omp 1.0e-5
pair_modify tail yes

thermo          ${out_freq}
thermo          1000
thermo_style    custom step temp pe etotal epair emol press lx ly lz vol pxx pyy pzz pxy pxz pyz enthalpy

restart 	${out_freq3} restart.lmp.${pid} restart2.lmp.${pid}
restart 	1000 restart.lmp.${pid} restart2.lmp.${pid}
restart 	1000 restart.lmp.0 restart2.lmp.${pid}
restart 	1000 restart.lmp.0 restart2.lmp.0


include         in.dump
dump            myDump all atom ${out_freq2} dump.water.${pid}
dump            myDump all atom 10000 dump.water.${pid}
dump            myDump all atom 10000 dump.water.0
dump            myDump2 all dcd ${out_freq2} dump.dcd
dump            myDump2 all dcd 10000 dump.dcd
dump_modify     myDump append yes
dump_modify     myDump2 append yes


variable natoms 	equal  "count(all)"                        # NUMBER ATOMS
variable H      	equal  "enthalpy/v_natoms"                 # ENTHALPY-per-atom
variable Vol      	equal  "vol/v_natoms"                 # volume-per-atom
fix AVG all 		ave/time ${out_freq} 1 ${out_freq} v_Vol v_H file vol_enthalpy.dat
fix AVG all 		ave/time 1000 1 ${out_freq} v_Vol v_H file vol_enthalpy.dat
fix AVG all 		ave/time 1000 1 1000 v_Vol v_H file vol_enthalpy.dat


timer           timeout 10:00:00 every 1000
New timer settings: style=normal  mode=nosync  timeout=10:00:00

fix 		1 all shake 1e-6 200 0 b 1 a 1
Finding SHAKE clusters ...
       0 = # of size 2 clusters
       0 = # of size 3 clusters
       0 = # of size 4 clusters
     432 = # of frozen angles
  find clusters CPU = 0.001 seconds
fix             2 all nph tri ${pressure} ${pressure} ${pressureDamp}
fix             2 all nph tri 8418.8 ${pressure} ${pressureDamp}
fix             2 all nph tri 8418.8 8418.8 ${pressureDamp}
fix             2 all nph tri 8418.8 8418.8 1000
fix             3 all temp/csvr ${temperature} ${temperature} ${tempDamp} ${seed}
fix             3 all temp/csvr 135.48 ${temperature} ${tempDamp} ${seed}
fix             3 all temp/csvr 135.48 135.48 ${tempDamp} ${seed}
fix             3 all temp/csvr 135.48 135.48 100 ${seed}
fix             3 all temp/csvr 135.48 135.48 100 745823


run             250000
PPPM initialization ...
  extracting TIP4P info from pair style
  using 12-bit tables for long-range coulomb (../kspace.cpp:340)
  G vector (1/distance) = 0.36882997
  grid = 30 40 32
  stencil order = 5
  estimated absolute RMS force accuracy = 0.0042337312
  estimated relative force accuracy = 1.2749756e-05
  using double precision FFTW3
  3d grid and FFT values/proc = 5168 640
Last active /omp style is kspace_style pppm/tip4p/omp
Neighbor list info ...
  update every 1 steps, delay 7 steps, check yes
  max neighbors/atom: 2000, page size: 100000
  master list distance cutoff = 10.8154
  ghost atom cutoff = 10.8154
  binsize = 5.4077, bins = 7 5 4
  1 neighbor lists, perpetual/occasional/extra = 1 0 0
  (1) pair lj/cut/tip4p/long/omp, perpetual
      attributes: half, newton on, omp
      pair build: half/bin/newton/tri/omp
      stencil: half/bin/3d/tri
      bin: standard
Setting up Verlet run ...
  Unit style    : real
  Current step  : 25500000
  Time step     : 2
  Walltime left : 9:59:59.91
Per MPI rank memory allocation (min/avg/max) = 9.447 | 9.451 | 9.456 Mbytes
Step Temp PotEng TotEng E_pair E_mol Press Lx Ly Lz Volume Pxx Pyy Pzz Pxy Pxz Pyz Enthalpy 
25500000    140.55511   -6650.3417   -6288.7722   -6650.3417            0    8437.5738    23.110962    21.245408    21.470574    10542.091      7869.12    9204.6069    8238.9945    560.17894    158.90232   -417.89974   -4991.5325 
25501000    135.18264   -6663.9816   -6316.2325   -6663.9816            0    7293.5964    23.167833    21.318114    21.397351    10568.034     6878.501    6860.2375    8142.0507    107.82851    273.39224    1152.1567   -5192.1147 
25502000    141.47518   -6676.1421   -6312.2059   -6676.1421            0    7903.6301    23.199602    21.171127    21.492213    10556.152    8567.1456    8060.9465    7082.7983   -396.34897   -42.376577   -91.782754   -5095.4368 
25503000    132.64108   -6652.8844   -6311.6733   -6652.8844            0    8392.8759    23.197754    21.196214    21.414403     10529.56    7960.9512    8149.0799    9068.5967    1103.2671   -998.20179   -165.15447   -5022.8396 
25504000    130.63183     -6669.17   -6333.1276     -6669.17            0    7886.9247    23.200102    21.214825    21.406397    10535.931    7586.7743    8460.3175    7613.6824   -474.53423     69.06118    189.54788   -5121.2563 
25505000    134.75498   -6656.8183   -6310.1693   -6656.8183            0    8344.0221    23.052937    21.103218    21.635068    10525.269     9037.247    8709.8943    7284.9249   -123.22234   -393.12294    -52.88103   -5029.3598 
25506000    138.91537    -6656.919   -6299.5676    -6656.919            0    8094.1743    23.062143    21.315147    21.408884    10524.028    8162.5553    8359.7368    7760.2309     283.9647   -25.309174   -99.653533   -5057.2563 
25507000     134.3758   -6665.5178   -6319.8442   -6665.5178            0    8719.3701    23.069904    21.322023    21.386187    10519.802    8812.1509    8047.6044    9298.3551    1419.0867   -330.76325   -120.34417   -4982.1139 
25508000    139.44891   -6656.2312   -6297.5074   -6656.2312            0    9723.6784    22.941707    21.294796    21.472848    10490.323     10988.62     8819.218    9363.1968   -984.16876    266.99369    -112.7963    -4809.876 
25509000    140.01118   -6649.0856   -6288.9153   -6649.0856            0    7996.6918    23.171075    21.252256     21.42725    10551.584    7725.2179    7712.0871    8552.7704   -205.77588    70.507572    87.318141   -5058.3521 
25510000    139.90948   -6666.3661   -6306.4574   -6666.3661            0    8243.3615    23.166317    21.221376    21.445879    10543.247    8458.6538    8192.6095    8078.8212   -2.6852587    162.05534     523.1228    -5038.938 
25511000    134.55035    -6657.345   -6311.2224    -6657.345            0    8600.1353    23.153192    21.055381      21.6013    10530.618    8964.5968    8611.1626    8224.6465   -118.13182   -247.32193     1056.706   -4990.4286 
25512000    139.07738   -6638.7006   -6280.9325   -6638.7006            0    9404.0171    23.216573    21.143614    21.362175    10486.313    7532.8112     10477.31     10201.93    300.90828     330.0071    152.39352   -4842.7563 
25513000    137.88384   -6654.4294   -6299.7316   -6654.4294            0     7852.524    23.194023    21.241556    21.403472    10545.001    7034.0927    7694.9552    8828.5241    614.68664   -72.746338    443.81472   -5092.1074 
25514000    130.04763   -6664.4249   -6329.8853   -6664.4249            0    7995.2673    23.026741    21.183776    21.599894    10536.284    7959.7199    9053.1045    6972.9773    265.70476   -270.20737   -542.52542   -5101.3254 
25515000     136.4083   -6657.5768   -6306.6748   -6657.5768            0    9525.5171    23.047834    21.375196    21.319556    10503.121    9198.0732    9354.8056    10023.672   -524.50437    830.72243   -355.73162   -4847.5823 
25516000    136.54578   -6665.3242   -6314.0685   -6665.3242            0    7803.1212     22.99991    21.354287    21.468206    10544.038    8321.4194     7295.967    7791.9771   -31.854071    1447.5925   -596.89844   -5114.1515 
25517000    136.38188   -6657.1201    -6306.286   -6657.1201            0    8880.8759    22.892624    21.439856    21.398091    10502.495    10092.725    7903.8123    8646.0906    804.81174   -374.87029    373.26963    -4946.019 
25518000    128.67995   -6662.3302   -6331.3089   -6662.3302            0    7926.7268      23.1043    21.230791    21.482173    10537.491    7300.7313    8003.5899    8475.8592    462.56443    1552.7571     580.4206   -5113.1414 
25519000    139.41673   -6676.0545   -6317.4134   -6676.0545            0    7902.8526    23.154135    21.251589    21.474086    10566.585    7404.8882    8476.0263    7827.6433   -503.76961   -24.839471    202.87756   -5099.5617 
25520000    141.51442   -6682.8752    -6318.838   -6682.8752            0    8009.2278    23.280404    21.065493    21.431984    10510.528    7138.0079    8057.0017    8832.6739    438.86558    7.9897203   -149.80244   -5091.1414 
25521000    131.60557   -6665.1674   -6326.6201   -6665.1674            0    8803.9226    23.214934    21.044574    21.495267    10501.478    8438.9388    9534.2491      8438.58   -831.74079   -886.22319    848.04435   -4978.2704 
25522000    131.56427   -6645.9013   -6307.4602   -6645.9013            0    8552.6086    23.228365    21.172665    21.416182    10532.615    8798.5473    8842.8146    8016.4639    770.73205   -968.16645   -100.48902   -4993.7164 
25523000    138.14813   -6678.2058   -6322.8282   -6678.2058            0     8132.279    23.147957    21.206635    21.447618    10528.427    8341.7799    8059.4272    7995.6298     229.7349   -301.71093    -275.0541   -5074.1468 
25524000     146.6269   -6646.9291   -6269.7403   -6646.9291            0    9083.3491    23.004297    21.285554    21.474906    10515.385     9747.191    8230.8188    9272.0375    358.01105   -491.78152    249.75539   -4876.7533 
25525000    142.11144   -6656.1578   -6290.5848   -6656.1578            0    8021.6503    23.016573    21.444936    21.356233      10541.2    8972.4158    6204.3059    8888.2291   -225.21112    483.17142    440.10196   -5057.3957 
25526000    133.55606   -6639.0644   -6295.4996   -6639.0644            0    8461.5365     22.96925    21.415713    21.455243    10553.896    9387.1978     7343.245    8654.1666   -114.60107   -761.64623   -171.30147    -4993.119 
25527000    140.28588    -6664.797   -6303.9201    -6664.797            0    7719.0089    23.120948    21.312522    21.428907     10559.43    7255.6837     8092.589    7808.7541    688.74851     478.8228   -673.06124   -5115.2046 
25528000    126.88961   -6644.5873   -6318.1715   -6644.5873            0    10064.635    23.142428    21.160523    21.404868     10482.09    10206.359    9434.2585    10553.289   -992.63691   -109.19383    26.878638   -4779.5854 
25529000    130.55296   -6654.8166   -6318.9771   -6654.8166            0    8829.8624    23.139125    21.102206    21.514963    10505.468    8645.3431    9747.5078    8096.7364     48.11955   -678.38476   -345.02908   -4966.1409 
25530000    137.80963   -6640.9117   -6286.4048   -6640.9117            0     9232.614    23.227211    21.151268    21.375669    10501.545     8041.147    10112.911     9543.784    407.75659    371.04559    189.08744   -4872.3907 
25531000    141.22122   -6652.6363   -6289.3533   -6652.6363            0    9788.2478    23.106619    21.196067    21.389024     10475.69    10461.859    9410.3056    9492.5789   -238.80017    182.67338     486.0341   -4793.9323 
25532000     140.0821    -6659.785   -6299.4323    -6659.785            0    8778.1838    23.086127    21.278492    21.408381     10516.61    7255.6236    10363.247    8715.6803    942.85955    1331.8379   -335.64725   -4953.0875 
25533000    130.15448   -6650.6195    -6315.805   -6650.6195            0     8204.406    22.959438    21.417625    21.466332    10555.782    8715.6561    7885.8863    8011.6756     607.0304   -1094.7776   -552.94112   -5052.7756 
25534000    132.58385   -6659.0138   -6317.9499   -6659.0138            0    8317.2812    22.999096    21.416758    21.358853    10520.647    7371.8444    9148.8167    8431.1826    715.26134    1011.3022    -133.0442   -5041.8058 
25535000    134.66672   -6674.0415   -6327.6196   -6674.0415            0    8090.4365    23.112659     21.22634    21.474354    10535.257    8209.4574    8316.5034    7745.3487   -511.46124    1116.2517    442.00105   -5084.5571 
25536000    132.55005   -6670.9546   -6329.9776   -6670.9546            0    6983.4161    23.254595    21.217029    21.426259    10571.576    6589.7411    6435.9126    7924.5946    747.06791   -1553.4907   -171.88973   -5253.3053 
25537000     143.9793   -6671.7596   -6301.3816   -6671.7596            0    8979.5114    23.255956    21.055146    21.469662    10512.782    9298.0124    8891.1801    8749.3418   -119.76378   -984.45675    -94.00133   -4924.6596 
25538000    134.39127   -6648.8871   -6303.1737   -6648.8871            0     9614.221    23.128706    21.161531    21.409663    10478.721    9812.1268    10465.335    8565.2009    70.886121    144.68879    -196.5641   -4833.9151 
25539000    136.88213   -6664.6618   -6312.5409   -6664.6618            0    7372.3177    23.167114    21.279565    21.400029    10549.917    6227.2156    7673.2162    8216.5214    591.08397    748.82752   -597.37862   -5178.2382 
25540000    133.19438   -6658.1023   -6315.4679   -6658.1023            0    8730.6791    22.893257    21.322945    21.527086    10508.483    9250.0693     9302.576     7639.392    533.87717   -174.88059   -478.32387   -4977.4438 
25541000      137.003   -6673.4393   -6321.0074   -6673.4393            0    8054.4169    23.132411    21.314195    21.327749    10515.619    8818.0053    7097.2483    8247.9969    339.15847   -191.63029   -39.555545   -5085.7859 
25542000    134.52788   -6662.2792   -6316.2144   -6662.2792            0     8866.158     23.09329    21.225862    21.464179    10521.204    9657.3933    8562.6235    8378.4573   -702.12564   -406.25905    -212.7745   -4955.7826 
25543000    135.44778   -6655.5251   -6307.0939   -6655.5251            0    7621.1654    23.203097    21.203184    21.481482    10568.449    7214.4422    7804.6644    7844.3895    591.23153   -136.67107    835.63748   -5132.4438 
25544000     138.6566   -6658.5921   -6301.9065   -6658.5921            0    9474.5349    23.219781    21.130127     21.40095    10500.096     8584.891    9983.8003    9854.9134    941.48586   -309.70505    628.98306   -4851.0413 
25545000    125.99038   -6672.6673   -6348.5648   -6672.6673            0     7899.186    23.207208    21.097672    21.560918    10556.615    7722.6376     8278.841    7696.0795   -1667.7241    254.02357   -29.612642   -5132.4266 
25546000    141.16654   -6670.1825   -6307.0402   -6670.1825            0    8041.6405    23.178904    21.242512    21.412489    10543.042    7759.4948    7783.8564    8581.5703   -657.35108    747.21557   -135.75008    -5070.562 
25547000    132.73444    -6654.776   -6313.3248    -6654.776            0    9635.1954    23.023186    21.323178    21.312281    10462.785    8996.3246    9227.7001    10681.561    1771.2938   -390.43598    139.68999   -4843.1001 
25548000    135.77498     -6652.32   -6303.0471     -6652.32            0    8275.6737    23.033786    21.323244    21.456338    10538.388    8348.9338    9105.9544    7372.1329    669.80324    44.731788   -1125.6394   -5031.1457 
25549000    145.43456   -6674.4229   -6300.3013   -6674.4229            0    8664.1077    23.082552     21.28789    21.421179    10525.914    8942.6255    7976.6066     9073.091   -461.43745    423.62734    394.07035   -4970.2771 
25550000    138.55654   -6667.2006   -6310.7724   -6667.2006            0    8781.7649    22.991651    21.298742     21.49064    10523.822     8897.817    8966.5296     8480.948    438.59534    486.16516   -444.87855   -4962.9546 
25551000    134.54337   -6645.7134   -6299.6087   -6645.7134            0    9235.3864    23.208431    21.207422    21.396501    10531.165    9687.5365     9449.922    8568.7006    387.77558   -732.40961     194.9189   -4881.1805 
25552000    134.64291   -6673.5978   -6327.2371   -6673.5978            0    7975.9364    23.220886    21.227087    21.441382     10568.71    7591.0336    8322.2819    8014.4938     35.31283    -1162.401    471.76775   -5097.8758 
25553000    130.13426   -6654.1351   -6319.3726   -6654.1351            0    8764.9397    23.126821    21.043081    21.624289    10523.667    8775.1541      9728.65    7791.0152    226.80803     151.8556   -376.62892   -4974.1569 
25554000    135.82669   -6651.8237   -6302.4178   -6651.8237            0    8758.9205    23.182393    21.257809    21.338479    10515.749    8545.9745    8912.9938    8817.7931   -1578.2397   -2.2171229   -189.67963   -4959.1373 
25555000    139.67453   -6668.0091   -6308.7049   -6668.0091            0    7906.9919    23.128053    21.268058    21.421817    10537.151    7475.4453    7873.0297    8372.5008    325.13901    484.79049   -218.77499   -5093.6094 
25556000    139.77894    -6642.831   -6283.2582    -6642.831            0    10504.938    22.918847    21.235179    21.502527    10464.975    11187.665    10197.185    10129.963    1079.9157    167.78526    463.24183   -4679.9849 
25557000    142.20498   -6671.5121   -6305.6985   -6671.5121            0    9025.7653    23.078535    21.328337    21.310071    10489.387    8370.4652    9202.0843    9504.7464    172.33029    477.43607   -497.68703   -4924.9644 
25558000    137.04837   -6663.7075   -6311.1589   -6663.7075            0    8676.9803    22.907653    21.377329    21.460496      10509.3    10308.617    7201.2055    8521.1187   -897.77417    570.67001   -157.65756   -4981.2611 
25559000    138.63661   -6662.2892    -6305.655   -6662.2892            0    9391.8536    23.004978    21.216011    21.504461    10495.765    10522.357    9100.8332    8552.3709      359.055    535.14043   -210.46502   -4868.0443 
25560000    131.21852   -6673.0251   -6335.4735   -6673.0251            0    7401.1145    23.201626     21.27394    21.383441    10554.653     6943.973    7011.7675    8247.6031    33.476262   -597.06259    591.61115   -5196.2289 
25561000    137.11444    -6661.783   -6309.0645    -6661.783            0    9201.6005    23.233625    20.998541    21.529081    10503.441    7781.7301    10700.542    9122.5293    787.95169    59.498689    366.45465   -4899.5457 
25562000    135.19131   -6654.1811   -6306.4096   -6654.1811            0    7764.3258     23.32635    21.053371    21.485007     10551.25     6535.902    9247.0282    7510.0473   -256.54342    731.36314   -874.15285   -5111.6417 
25563000    134.87155   -6633.8255   -6286.8767   -6633.8255            0    8993.8474    23.205586    21.176273    21.426126    10528.966    9062.9448    8645.1251    9273.4721    -957.7462    249.34282    462.57892   -4905.8339 
25564000    136.81142   -6673.1124   -6321.1733   -6673.1124            0    7386.7339    23.127127    21.209538    21.535871    10563.682    7876.7811    7394.2443    6889.1762    298.14321    27.524908   -38.205258   -5183.1696 
25565000    131.48489   -6666.2839    -6328.047   -6666.2839            0    10315.781     23.04557    21.272676    21.326434    10455.091    10459.681     10071.58    10416.081   -880.10098   -167.71266   -1387.6361     -4755.13 
25566000    138.61853   -6653.0964   -6296.5087   -6653.0964            0    8634.7382    22.995698     21.32449    21.459955    10523.351    8947.4487    8683.2457    8273.5203   -1272.7672    297.22298   -218.88388   -4971.3158 
25567000    132.69191    -6674.512   -6333.1701    -6674.512            0    8135.6824    22.984777     21.40789    21.396207    10528.123    8864.7028    7496.6543    8045.6902    392.51235   -346.68653    13.473039   -5084.0022 
25568000    139.09045   -6682.2544   -6324.4527   -6682.2544            0    8278.0917    22.988947    21.396539    21.398825    10525.738     8939.867    7578.9795    8315.4285   -112.71904    -473.3394    -388.9312    -5053.707 
25569000     130.1091    -6675.232   -6340.5343    -6675.232            0    8305.4112    23.066599    21.203402     21.54221    10536.088    7959.3206    7857.4988    9099.4142   -128.82704    1161.3253    172.18557   -5064.3411 
25570000    136.49858   -6657.5633   -6306.4291   -6657.5633            0    9091.6897    23.224465    21.196368     21.27737    10474.302    9018.4013    8661.5363    9595.1314   -310.93118   -660.77612    286.58694   -4917.6103 
25571000    136.71986   -6665.7023   -6313.9988   -6665.7023            0    7599.4543    23.224623     21.15108    21.492266    10557.557    8390.6918    7388.7428    7018.9284    538.15782   -1087.0627   -485.41857   -5143.9022 
25572000    143.27714   -6649.8766   -6281.3049   -6649.8766            0    8761.3301    23.162812    21.153806    21.494518    10531.919    8143.9783    10101.216     8038.796    353.88563   -154.31483   -79.209212   -4935.5889 
25573000    131.73211   -6669.5014   -6330.6285   -6669.5014            0    7901.6773    23.198318    21.288643    21.308008    10523.188    7450.6583    7611.1017    8643.2718    138.01545    87.035688     316.0701   -5117.9589 
25574000    138.44426   -6671.6973   -6315.5579   -6671.6973            0    7999.8936    23.056362    21.291756    21.474693    10542.151     7939.186    8377.8995    7682.5952    133.44205    139.47759   -453.23208   -5085.6026 
25575000    132.14529   -6652.5112   -6312.5755   -6652.5112            0    8598.8937    22.976111     21.37018    21.447953    10531.023     9201.848    7611.3023    8983.5309   -262.89784    180.76594    241.72443   -4991.9216 
25576000    134.10999    -6659.788   -6314.7982    -6659.788            0    7605.3608    23.042154    21.448536    21.341842    10547.575    7840.5755    6377.4683    8598.0385    682.17403    477.05663   -856.22344   -5144.8993 
25577000    132.84884   -6671.7067   -6329.9612   -6671.7067            0    7629.8515     22.97236    21.370333    21.504343    10557.062    8659.2272    6814.3084    7416.0188   -370.50939    458.43001   -570.07384   -5155.2393 
25578000    141.75505   -6652.9236   -6288.2674   -6652.9236            0    9307.6191    23.173408    21.195418    21.387549    10504.924    8572.6545    9594.7349    9755.4679    530.37176    584.41433    159.93352   -4862.3072 
25579000    135.43439   -6677.1887    -6328.792   -6677.1887            0    8290.4662    23.186473    21.179794    21.451464    10534.486    7550.6527    9452.5115    7868.2345   -425.30812    94.084222   -517.45835    -5055.089 
25580000    140.15009   -6645.9439   -6285.4163   -6645.9439            0    9066.8012    23.342787    20.949689    21.466769    10497.768    7085.8433    10947.603    9166.9573   -155.65423    1361.9026   -586.19484   -4897.2965 
25581000     132.1598   -6666.6922   -6326.7191   -6666.6922            0    7879.9007    23.232331    21.201601    21.403069    10542.352    7430.1223    8929.9803    7279.5993   -271.08258   -811.27763   -31.100161   -5115.1892 
25582000    133.91709   -6661.2473   -6316.7537   -6661.2473            0    8703.6985    23.085102    21.160631    21.537394    10520.916    9344.1958    9132.4509    7634.4487    59.252063   -102.65836    -1088.359   -4981.2863 
25583000    140.89651   -6678.0877   -6315.6401   -6678.0877            0    7625.7487    23.032634    21.292339    21.492683    10540.413    9086.5761    6897.8296    6892.8405   -88.301414   -588.53024    582.29039   -5143.4015 
25584000    140.48658     -6647.94   -6286.5469     -6647.94            0     7862.864    23.162835    21.318375    21.367218    10551.004    8069.7752    6944.7403    8574.0764   -408.00152    236.56117   -496.29696   -5076.6442 
25585000    134.49393   -6665.7786   -6319.8012   -6665.7786            0    8501.8106    22.980353    21.385488    21.448064    10540.567    8672.3694    8020.1702    8812.8923   -427.33403    983.85153    649.75861   -5012.8743 
25586000    132.52223   -6661.4176   -6320.5123   -6661.4176            0    7876.0021    22.993268    21.255727    21.538115    10526.509    8861.1843    8061.5878    6705.2343   -217.42644    349.05702    81.445697   -5111.4015 
25587000    128.09735   -6660.3066    -6330.784   -6660.3066            0    8284.7171    23.110256    21.340377    21.344583    10526.755    8865.9125    7815.0393    8173.1994   -56.032871    253.74163    269.67456   -5058.8983 
25588000    134.80425   -6655.4086   -6308.6329   -6655.4086            0    8493.6987    23.146281    21.224559    21.439985    10532.813    8879.0432    7557.3038    9044.7492   -387.09506    447.77152   -371.36203   -5003.9135 
25589000    135.43955   -6683.4935   -6335.0835   -6683.4935            0    8602.7738    23.048386    21.207582    21.490685    10504.659      8921.13    8017.9246    8869.2669   -625.57799    18.347324     1054.597   -5017.1414 
25590000    135.42849   -6667.1688   -6318.7873   -6667.1688            0    8871.7025     23.13605    21.349403    21.286219    10514.134    7849.3152    8209.1569    10556.635   -334.86655   -67.780783   -299.74303   -4958.4195 
25591000    134.70501   -6675.2999   -6328.7795   -6675.2999            0    8871.7204    23.054916    21.246906    21.466588    10515.315    8823.6864    8619.1866    9172.2882   -159.23418   -236.38451    825.18313   -4968.2561 
25592000    133.34227   -6652.7212   -6309.7064   -6652.7212            0    8860.5595     23.05952    21.220529    21.503018    10522.184    9633.5575    7740.2074    9207.9137   -354.33849   -298.61547     182.0654   -4950.0069 
25593000     136.6662   -6661.9855   -6310.4201   -6661.9855            0    8821.3142    23.191754    21.269605    21.298088    10505.909    9040.1789    8161.0184    9262.7454    18.624303   -388.49007   -560.63684   -4958.8368 
25594000    133.85485    -6654.536   -6310.2026    -6654.536            0    8056.9224    23.095823    21.197814    21.509344    10530.565    8176.3079    9306.2914    6688.1679    304.12632   -659.74896   -359.00237   -5072.8407 
25595000    129.17569   -6670.5359   -6338.2393   -6670.5359            0    8044.2601    23.221755    21.209294    21.398634    10539.192    7432.1421    8126.9602    8573.6779   -108.61828    465.18383   -110.92084   -5101.8099 
25596000    136.96702   -6650.6006   -6298.2613   -6650.6006            0    8736.7122    23.081637     21.23718    21.500087    10539.103    8482.2932    9428.7921    8299.0514    -1106.987   -360.83485    427.55025   -4955.4111 
25597000    133.83179   -6651.0069   -6306.7328   -6651.0069            0    9535.6983    23.007522    21.276233    21.394903    10473.092    9756.5159    9659.7973    9190.7818    191.18693    581.42479   -81.905028   -4850.2569 
25598000    134.46709   -6680.3794    -6334.471   -6680.3794            0    7957.3274    22.967096    21.421435    21.394014    10525.602    8054.0927    8080.2059    7737.6836    270.15279    161.12278    674.76124   -5112.9806 
25599000    135.14492   -6659.1407   -6311.4886   -6659.1407            0    7935.4008    23.099668    21.271234    21.464561    10546.793    7961.8249    7816.0416    8028.3357   -100.35182    981.89587    334.34827   -5090.9117 
25600000    134.07379   -6663.9919   -6319.0952   -6663.9919            0    9209.7421    23.025255    21.218509    21.476941    10492.808    8756.2806    10682.612    8190.3338   -515.01417    96.117727   -739.17849   -4909.7575 
25601000    138.86986    -6687.067   -6329.8328    -6687.067            0    9127.2737    23.205137    21.187454    21.310113    10477.283    9111.0315    8692.0454    9578.7443    -717.2606    331.53573    31.064579   -4935.1815 
25602000     135.1033     -6665.25    -6317.705     -6665.25            0    8209.2296    23.098358    21.162283    21.597902    10557.357    8853.5699    8869.1986    6904.9205   -624.28731    742.43558    851.93737   -5053.7445 
25603000    136.43614   -6651.9391   -6300.9655   -6651.9391            0    7543.5335     23.16656    21.235956    21.467466    10561.221    8084.4168    7955.4828     6590.701    122.62514    197.44122   -19.128536   -5139.0759 
25604000    136.35315   -6659.0697   -6308.3095   -6659.0697            0    8971.4757    23.154449    21.252062    21.347394    10504.621    9287.9105     7849.654    9776.8626    319.57439   -256.04614    569.53993   -4933.8873 
25605000    140.17282    -6665.559   -6304.9729    -6665.559            0     7679.958    22.990373    21.307932    21.546344    10555.065    8803.9803    8021.6431    6214.2507   -263.15914   -421.59002   -382.65712   -5122.7602 
25606000    130.57232   -6651.2594   -6315.3701   -6651.2594            0    9902.6033    23.094133    21.258876    21.317942    10466.157     9550.551    10256.587    9900.6721   -1035.1277    252.34919   -726.47498   -4803.8548 
25607000    135.85767   -6668.2431   -6318.7575   -6668.2431            0    7920.5491    23.205429    21.214504     21.39354    10531.861    7563.4032    9264.0173    6934.2268    822.14864    -319.4987   -810.38229   -5102.1897 
25608000     137.4136   -6674.6244   -6321.1363   -6674.6244            0    7680.3239     23.27051    21.133951    21.438453    10543.385    7309.7488    8317.6219    7413.6009   -125.39761    227.60113   -185.03052   -5140.1755 
25609000    130.33015   -6655.0145   -6319.7482   -6655.0145            0    9035.0219    23.070061     21.22735    21.467113    10512.795    10039.723    8039.4648    9025.8783   -574.83389   -561.54094    356.21443   -4934.5137 
25610000      135.673   -6673.5898   -6324.5793   -6673.5898            0    7962.1197    23.150086    21.208479    21.488516    10550.391    8075.5296    7692.7274    8118.1022   -61.566289    70.841785    885.23875   -5099.4748 
25611000    131.84166   -6648.3977   -6309.2431   -6648.3977            0    8690.2919     23.10565    21.315128    21.380833    10530.058    8651.8038    7517.9249     9901.147    414.39224   -830.38335     588.8153   -4974.6742 
25612000     134.5753    -6662.212   -6316.0253    -6662.212            0    7698.1344    23.076629    21.273791    21.503628     10556.72    8917.6902    7968.8518    6207.8611    284.41256   -949.59381   -220.68861   -5130.8287 
25613000    139.22352   -6660.8623   -6302.7182   -6660.8623            0    9715.1463    23.099898    21.210303    21.378624    10474.581    9707.5948    9969.1153    9468.7287   -424.86994    576.05688   -318.16337   -4818.6226 
25614000    134.99807   -6659.4141   -6312.1398   -6659.4141            0    7320.0584    23.068039    21.411802    21.417549    10578.733    7409.5229    7006.8944     7543.758   -302.90712    -467.1557    276.97419   -5182.8014 
25615000    135.30147   -6658.1455   -6310.0907   -6658.1455            0    8122.0379    23.154201    21.152631    21.543508    10551.413    9185.9077    7761.6094    7418.5965    777.31298   -585.32772     112.8141   -5060.2591 
25616000    131.63495   -6675.5945   -6336.9717   -6675.5945            0    9083.4063    23.180352    21.141607    21.418253    10496.441    9624.5697    8580.0666    9045.5826    -1351.257   -80.575175    703.57009   -4946.4854 
25617000    127.53816   -6675.4116   -6347.3275   -6675.4116            0    8344.6121    23.360656    21.049668    21.419426    10532.661    7749.2599    8447.4778    8837.0985      267.854   -302.58498    179.83354   -5065.5278 
25618000    134.62143   -6678.7156   -6332.4102   -6678.7156            0    7964.4756    23.214199    21.232014    21.418414    10556.797    7287.6541    7772.7851    8832.9875   -133.02549   -1273.3448    1002.3963    -5106.199 
25619000    132.32405   -6659.6498   -6319.2542   -6659.6498            0    8259.0501    23.149213    21.214037     21.44769    10532.709    8293.0083    8180.6112    8303.5308   -666.98662    23.706658    258.90843   -5050.5919 
25620000    136.28857   -6662.2137   -6311.6197   -6662.2137            0    9513.9519    22.979027    21.261736    21.460298    10484.943     9597.719    9541.7107    9402.4261   -339.49206    55.139981   -25.510866   -4856.8209 
25621000    134.98933   -6667.7545   -6320.5026   -6667.7545            0     8242.606    23.093156    21.340084    21.365875    10529.315    7859.5925    9181.1306    7687.0949    883.98638   -51.268356   -285.58098   -5054.7742 
25622000     144.1397   -6665.8552   -6295.0646   -6665.8552            0    7711.3316    23.096777    21.321093    21.446642    10561.367     7444.336    8266.9317    7422.7271    -271.1344    351.98839    370.29717   -5107.3136 
25623000    136.11302    -6656.868   -6306.7255    -6656.868            0     10340.51    23.043041    21.201613    21.391683    10450.899    9638.2407    10297.668    11085.622    429.65776    581.32618     338.8433     -4730.67 
25624000    132.54553   -6655.7629   -6314.7975   -6655.7629            0    7191.5587    23.217296    21.232349    21.451792    10574.827    7245.2186    6110.8134    8218.6439    1087.4682   -189.04287   -177.98169   -5205.6938 
25625000    131.73426   -6639.9686   -6301.0902   -6639.9686            0    9295.8184    23.078407       21.257    21.479699    10537.461    10442.379    8365.3047    9079.7719   -229.04861   -485.72015   -341.27546   -4872.5269 
25626000    136.91799   -6668.5826   -6316.3695   -6668.5826            0    7641.2899    23.220347    21.189373    21.432639    10545.385    6516.1325    7497.7141     8910.023    746.74403    1680.1968     155.6139   -5141.1878 
25627000    133.31414   -6657.8861   -6314.9436   -6657.8861            0    9043.0809    23.038468    21.275002    21.426337    10501.979     7828.429    9197.7754    10103.038   -276.18796    510.38561    707.36011   -4929.9001 
25628000    132.50986    -6655.323   -6314.4495    -6655.323            0    8469.3312    23.101892    21.201616    21.497319    10529.331    9209.8508    7961.3016    8236.8412  -0.16368998   -910.49077   -288.96551   -5013.9032 
25629000    134.63467   -6642.8013   -6296.4618   -6642.8013            0    7861.6474    23.097434    21.305122    21.456399    10558.558    7802.4393     8415.583      7366.92    1197.1374   -214.74131   -269.51158   -5085.8803 
25630000    131.46713   -6677.2506   -6339.0594   -6677.2506            0    8665.8864    23.112571    21.186632    21.467232    10512.021    8141.5607    9399.3302    8456.7683   -780.79622    1057.1185   -108.31432   -5010.5179 
25631000    127.43791    -6664.091   -6336.2647    -6664.091            0     8007.418    23.154338    21.264213    21.400644    10536.795    7945.5498    8211.4641      7865.24   -41.829428   -533.61966    232.17846    -5105.778 
25632000    136.72532   -6652.1772   -6300.4596   -6652.1772            0    7769.2895    23.246814    21.225911    21.388151    10553.658    7577.3124    7320.5421     8410.014     804.8827   -536.04577   -44.475045    -5104.655 
25633000    135.01561   -6656.3334    -6309.014   -6656.3334            0    8070.9546    23.097445    21.163604    21.575912    10546.849    8402.2558     8896.372     6914.236   -1148.6824    232.94102   -511.76056   -5067.5804 
25634000    130.48615   -6661.1148   -6325.4472   -6661.1148            0     9636.519    23.123469    21.242236    21.322988    10473.728    8779.5206    9528.2205    10601.816   -699.30168    466.78148   -388.79019   -4853.4826 
25635000    131.86031   -6672.9412   -6333.7386   -6672.9412            0    7661.6806    23.200762    21.306273    21.338563    10548.116    7587.2357      7463.94    7933.8663    112.42217   -255.07291   -456.02245   -5155.1158 
25636000    141.46054   -6661.0701   -6297.1715   -6661.0701            0    9392.4069    22.936876    21.284651    21.492051    10492.492    11379.061    7937.2663    8860.8935   -793.47226   -39.705344    165.40892   -4859.9244 
25637000    141.91174   -6684.8914   -6319.8321   -6684.8914            0    7917.4756    23.107776    21.384839    21.314819    10532.847    7671.5717    7724.4781    8356.3772   -39.610697    1363.6005   -293.74596   -5103.6226 
25638000    126.96723   -6652.8534   -6326.2379   -6652.8534            0    8667.6984    23.041936    21.307005    21.451949    10531.934    8696.2318    8366.2494    8940.6139     602.2046   -604.22826    154.93631   -4994.9015 
25639000    136.33855   -6673.8195   -6323.0969   -6673.8195            0    8310.4596    23.157254    21.168792    21.480679    10530.067    8478.5175    8471.3315    7981.5296   -270.26703    23.657167   -505.89412   -5046.8577 
25640000    136.84439   -6666.4308   -6314.4069   -6666.4308            0    7978.1839     23.29369    21.206124    21.312597     10527.76    6056.7664    7770.8206    10106.965    392.61785    501.20096    1015.1396   -5089.4639 
25641000    129.81578   -6661.9233   -6327.9801   -6661.9233            0    7502.0623    23.091345    21.215031    21.583473    10573.389    8653.8332    7093.9781    6758.3756    1333.4922   -1145.8528    381.87172   -5171.1469 
25642000    142.48832   -6675.6521   -6309.1096   -6675.6521            0    9213.6221    23.092884    21.237969    21.389472     10490.38     7666.063    10946.015    9028.7885    891.60176    241.72893   -473.92854   -4899.5044 
25643000    138.99097   -6669.8796   -6312.3338   -6669.8796            0    8442.0778    23.023359    21.319402    21.415615    10511.731    9193.1551    7667.4902     8465.588    221.45579   -569.74514   -289.24395   -5018.1395 
25644000    134.66302   -6657.1297   -6310.7173   -6657.1297            0    10197.761    23.039941    21.115963     21.50878    10464.249    11575.886    9572.5021    9444.8933    310.14133   -405.96775    1021.8975   -4754.4337 
25645000    141.24914    -6657.042   -6293.6872    -6657.042            0    7675.1639    23.257706    21.170955    21.404496    10539.313     7473.894    8455.1492    7096.4483   -45.467778   -126.33083   -62.929497   -5113.9756 
25646000    134.05108   -6667.5533    -6322.715   -6667.5533            0    8663.8733    23.194068    21.150262    21.432494    10513.938    8116.9831    9304.8082    8569.8285    649.18478    436.59532    251.85382   -4994.2401 
25647000    134.97305   -6680.0417   -6332.8317   -6680.0417            0    7527.8343    23.128669    21.170029    21.578589    10565.623    7216.5046    7517.5143    7849.4841    469.64768    62.030777     502.7876   -5172.8769 
25648000    130.91522    -6665.916   -6329.1446    -6665.916            0    8325.9751    23.138706    21.331322     21.28824    10507.432    7569.0735    7721.8371    9687.0148    856.85594    75.453108    177.79234   -5053.2712 
25649000    141.18512   -6663.6686   -6300.4785   -6663.6686            0    7878.5225    22.983983    21.319131    21.555688    10562.256    8772.8888    7172.8839    7689.7947   -594.39746     826.5551    402.59357   -5086.8735 
25650000    132.25188   -6665.2901   -6325.0802   -6665.2901            0    7574.8691    22.993358    21.447523     21.38645     10546.74    8740.9678    6152.5026    7831.1369   -822.40096   -471.91718    153.28231   -5159.9639 
25651000    135.54113   -6647.1105   -6298.4392   -6647.1105            0    9231.6613    23.146947    21.265189    21.339744    10503.938    8315.7855    8520.0171    10859.181    235.16888   -540.78933    339.83298   -4884.2487 
25652000    139.41338    -6691.385   -6332.7525    -6691.385            0    8152.7736    23.085707    21.208713    21.532394    10542.651    8751.6091     7965.621    7741.0906   -405.58763   -232.79168    386.89151   -5079.2331 
25653000     138.6281   -6656.2421   -6299.6297   -6656.2421            0    7914.3157    23.236798    21.132066    21.508877    10561.753    7546.5945    8434.1182    7762.2342   -688.49817    572.63961    226.45875   -5080.5693 
25654000    132.50924   -6649.3223   -6308.4504   -6649.3223            0     8717.593    23.282002    21.136266    21.372445    10517.265    7943.0874    10109.968     8099.724    -432.4703    100.01573    124.00854   -4971.3153 
25655000    132.05039   -6668.5256    -6328.834   -6668.5256            0    8763.0124    23.145146    21.117907    21.512224    10514.681    9669.4982    8416.5597    8202.9793   -1186.4901    265.80989    27.678465   -4985.0625 
25656000     128.6961   -6667.4768   -6336.4139   -6667.4768            0    8975.8801    23.222016    21.237055    21.267749    10488.557     8242.603    8395.7947    10289.243   -18.172102    1056.4655    138.92464   -4963.4198 
25657000    135.00427   -6670.1959   -6322.9056   -6670.1959            0    8643.8087    22.942546    21.370404    21.403987    10494.192    9335.3762    7935.5507    8660.4993    382.49535   -662.90377   -111.43433   -4999.9964 
25658000    132.67752   -6661.2454   -6319.9406   -6661.2454            0    9793.8012    23.037929    21.240024     21.40118    10472.157     9573.047    9900.7456    9907.6111    317.83762   -38.272768    165.45468   -4824.1757 
25659000    134.70503   -6664.4183   -6317.8978   -6664.4183            0    7505.5297    23.147735    21.320527    21.373691    10548.384    6598.4293    7696.4529    8221.7069   -106.63958    333.91187    75.367483   -5163.2669 
25660000     136.9769   -6668.1453   -6315.7805   -6668.1453            0    9634.6983      23.0934    21.154983    21.456713    10482.473    9760.6608    9831.0147    9312.4195   -475.35889    897.14756   -247.88577   -4842.8653 
25661000    133.53857   -6680.6053   -6337.0855   -6680.6053            0    7719.8917    23.081543    21.282696    21.479775     10551.67    8479.0284    8277.7014    6402.9452    180.95483    -213.4676   -594.63446   -5149.1077 
25662000    130.47517   -6650.4558   -6314.8163   -6650.4558            0    7975.5866    23.089939    21.392221       21.367    10554.124    8625.3043    7387.0598    7914.3956   -510.60118    186.25707   -715.58918   -5087.2055 
25663000    138.90891   -6667.2253   -6309.8906   -6667.2253            0    9138.7173    23.057816    21.171181    21.471252    10481.432    8535.9601    9568.1244    9312.0675    445.02842    1044.4304    527.01514   -4912.9377 
25664000     131.2815   -6665.8644   -6328.1507   -6665.8644            0    8080.8366    23.103419    21.270354     21.41607     10524.24    9066.5751     7267.338    7908.5966   -712.96585   -162.95168   -90.218229   -5087.8615 
25665000    135.56127   -6661.6589   -6312.9358   -6661.6589            0    8999.3291    23.253558     21.19226    21.321871    10507.321    8680.8013    8948.7118    9368.4742    547.43874   -918.64285   -296.34297   -4933.8922 
25666000    137.25245   -6652.7274   -6299.6538   -6652.7274            0     8715.892    23.111835     21.12151      21.5645    10526.859    9190.6682    9040.2526    7916.7552   -1021.9368    484.96303    703.21434   -4961.5601 
25667000    132.07475   -6663.5059   -6323.7516   -6663.5059            0    7431.5375    23.189528    21.228661    21.470236    10569.424     7896.961    7462.2787    6935.3727   -856.88077    32.131436   -442.29137   -5178.2232 
25668000    138.88513   -6658.2724   -6300.9988   -6658.2724            0    7573.8699    23.138684    21.345617    21.389581    10564.517    7362.8718    7954.2829    7404.4551    135.97646    940.51579   -221.72361   -5134.0727 
25669000    140.58102   -6644.1364   -6282.5003   -6644.1364            0    9301.1522    22.924065    21.267448    21.572686    10517.469    9362.3703    9153.3504    9387.7358    1153.7492    294.87907     651.4872   -4855.8292 
25670000    138.72787   -6674.0868   -6317.2178   -6674.0868            0    8273.4724    22.968138    21.403277    21.415122    10527.533     8197.507    8103.4887    8519.4216   -979.06136    779.21862   -199.01836   -5046.9645 
25671000    137.86455   -6670.7678   -6316.1197   -6670.7678            0    7614.4009    23.154943    21.320988    21.356432    10543.377    8654.3204     6746.894    7441.9883   -1083.0111   -368.86001    293.11327   -5145.2964 
25672000    138.39907   -6665.7152    -6309.692   -6665.7152            0    8343.8261    23.173723    21.171036    21.426974    10512.325     7615.839    9030.8334    8384.8057    511.57667    255.64213    893.24229   -5030.4878 
25673000     135.4571   -6670.7934   -6322.3382   -6670.7934            0    9108.0966    23.166586    21.179351    21.409609    10504.694    9107.0617     8546.204    9671.0241   -573.80897     155.0982   -15.516386   -4926.9761 
25674000    130.71688   -6663.4233   -6327.1621   -6663.4233            0    9302.6099    23.140111    21.107381    21.512702    10507.388    9200.1291    9925.9602    8781.7404    106.91579   -594.09213   -123.64129    -4901.635 
25675000    131.08468   -6654.4166   -6317.2092   -6654.4166            0    6860.2231    23.265397    21.218774    21.447195    10587.691    5813.7599     7450.762    7316.1475    188.62013    12.977203    176.31681    -5257.918 
25676000    135.45403   -6674.0483   -6325.6011   -6674.0483            0    8425.9238    23.102135    21.221484    21.452201     10517.19    8476.7591    8559.4756    8241.5367   -812.62221     532.1383   -262.54277   -5033.2124 
25677000    137.47352    -6650.613   -6296.9708    -6650.613            0    7241.6572    23.053703     21.36005    21.470299    10572.582    8547.1697    6887.7079     6290.094   -480.09106   -1041.5237   -196.38076   -5180.3777 
25678000    137.25151   -6659.3817   -6306.3106   -6659.3817            0    8305.2103    23.116768    21.323665    21.382474    10540.153      9192.48    7417.6708      8305.48    207.62357    145.34439   -42.139227   -5029.6559 
25679000    134.34508   -6662.7616   -6317.1671   -6662.7616            0    7580.4589    23.039922    21.350218    21.476912    10564.651    7686.0816      7230.02    7825.2752    -518.2736    497.47344    589.15708   -5149.2109 
25680000    140.69456   -6666.1301   -6304.2019   -6666.1301            0    8882.8958    23.054865    21.150323    21.516096    10491.632    8797.7746    9323.9716    8526.9413    159.59181    1476.2443   -28.820881   -4945.0327 
25681000    135.03334   -6664.0262   -6316.6611   -6664.0262            0    8535.5179    23.130979    21.288361    21.362735    10519.451    8452.4908    7642.9216    9511.1414    -524.7833   -387.37102    256.41082   -5007.1812 
25682000    139.88139   -6659.6557   -6299.8193   -6659.6557            0    8838.4583    23.174207    21.084166    21.485293    10497.904    8133.2796    10381.001    8001.0943   -269.52915   -186.68986   -701.37582   -4946.6412 
25683000    134.51149   -6673.9088   -6327.8862   -6673.9088            0    8386.1091    23.265449    21.146434    21.418248    10537.377    8793.4189    7940.2134     8424.695   -1163.1475    -578.9888    1092.1051   -5039.1356 
25684000    133.54224   -6673.3433   -6329.8141   -6673.3433            0    7351.5072    23.282957    21.146934    21.465833    10568.985     6839.378    7408.2953    7806.8484   -722.42007    48.116944    121.49768   -5196.6689 
25685000     137.2301   -6656.1932   -6303.1771   -6656.1932            0    8810.1829    23.093721    21.239051    21.437169    10514.689    9075.5785    8368.8296    8986.1407    846.01274    108.59512   -547.62248   -4952.1712 
25686000    140.27142   -6668.0724   -6307.2327   -6668.0724            0    7982.6578    23.015721    21.394299     21.43653    10555.459    9235.0721    7374.2143    7338.6871   -848.40573    448.05819   -283.68104    -5078.378 
25687000    132.67098   -6674.2359   -6332.9479   -6674.2359            0    8813.9829    23.013894    21.342481    21.407322    10514.711    9057.7883    8691.9093     8692.251     686.7645    267.17791    217.51112   -4981.3564 
25688000    135.78077   -6645.2339   -6295.9461   -6645.2339            0    9025.5635     23.00562    21.238505    21.527306    10518.349    9936.1516     9111.918    8028.6209    1367.3205   -1055.6902    379.73424   -4911.4308 
25689000    131.99289   -6680.1927    -6340.649   -6680.1927            0    7882.2036    23.136984    21.290674    21.378947    10531.312    7182.9802    7609.1792    8854.4515   -373.41244   -564.74712   -265.39801   -5130.0341 
25690000    143.80256   -6657.8862   -6287.9628   -6657.8862            0    8160.2868     23.13387    21.222947    21.468389    10540.311    7953.9359    7659.4103    8867.5143   -464.79641   -269.75354    671.72288   -5033.5666 
25691000    140.54685   -6665.5561   -6304.0079   -6665.5561            0    7711.6327    23.208391    21.121804    21.557335    10567.472    7135.7422    8740.2544    7258.9015    283.03323   -913.82022   -52.682165   -5115.5239 
25692000    137.07626    -6662.461   -6309.8407    -6662.461            0    7890.3287    23.169262    21.283988    21.387844    10547.079    7765.3021    8064.8042    7840.8798    6.6328762   -136.81863    199.76657   -5096.1634 
25693000    134.29655   -6665.2829   -6319.8132   -6665.2829            0    7866.3707    23.032479    21.236695    21.572283    10551.731    8396.8773    8431.6455    6770.5894    632.78431    512.19365    195.47141   -5109.2875 
25694000    134.36465   -6659.4576   -6313.8127   -6659.4576            0    7258.9858    22.955486    21.519119    21.397373    10569.914    6704.5692    7391.3264    7681.0619    612.01632    548.73559   -480.35786   -5194.8303 
25695000    137.71917   -6653.2808   -6299.0066   -6653.2808            0     9065.242     22.97665    21.331803    21.443708    10510.277    9566.5618    8951.9872     8677.177    102.32502    797.85524    248.43493   -4909.4717 
25696000    132.78357   -6663.1521   -6321.5744   -6663.1521            0      8350.96    22.987267    21.378626    21.418207    10525.682    8971.4547    7610.4762    8470.9491   -70.877386   -572.00478    682.58462   -5039.6497 
25697000    136.60095   -6660.3895   -6308.9918   -6660.3895            0    9363.1977    23.162074    21.224536    21.357398    10499.388    8414.5431    9493.9683    10181.082     598.1425    3.4638443    761.15517   -4875.2728 
25698000    141.53493   -6669.2926   -6305.2027   -6669.2926            0    8606.5656    23.154398    21.119687     21.52695    10526.972    8107.0454    9678.5638    8034.0877    256.82877    234.19646     342.6929   -4983.8789 
25699000     138.6202   -6663.4114   -6306.8193   -6663.4114            0     8089.636    23.345941      21.0784    21.428955    10545.083    6320.6694     8736.878    9211.3606   -62.792313   -768.86296     990.6801   -5062.7205 
25700000    131.54004   -6656.2533   -6317.8746   -6656.2533            0    9056.1747    23.250117    21.113101    21.368744    10489.533    8837.2142    8735.6145    9595.6955   -759.50572    84.251818   -100.17262   -4932.4693 
25701000    143.27312   -6676.7407   -6308.1793   -6676.7407            0    9143.8712     23.08941    21.185724      21.4491    10492.167    8073.8293    10528.446    8829.3386    -311.1777    572.39719    -1131.437    -4909.007 
25702000    133.69168   -6658.6346   -6314.7209   -6658.6346            0    8601.9503    23.023959    21.288238    21.461736    10519.245    9265.6339    7769.1473    8771.0698    809.55508   -242.31303    609.64436   -4995.0751 
25703000    128.50415   -6672.9164   -6342.3474   -6672.9164            0    8884.4815      22.9254    21.484253    21.356771    10518.959    9346.6167    7621.2667    9685.5611    114.90215   -85.532963     103.7896   -4979.3948 
25704000    130.81831    -6661.956   -6325.4339    -6661.956            0    7098.0445    23.014268    21.420932    21.452091    10575.604    7781.9646    6765.5501    6746.6188   -40.293338    519.19069   -639.21036   -5230.6717 
25705000    131.30826   -6663.5132   -6325.7307   -6663.5132            0    8242.1931    23.042765    21.370339    21.363829    10520.227    8443.1219    6869.3092    9414.1483   -482.78998   -322.57242    723.63841   -5061.1581 
25706000    134.81972   -6678.3039   -6331.4884   -6678.3039            0    8767.3015     23.20273    21.137173    21.426182    10508.259    7634.1521    9526.2642    9141.4881     315.4264    321.45322   -198.99985   -4987.8803 
25707000    132.30504     -6668.91   -6328.5633     -6668.91            0    8508.1039    23.195219      21.0656    21.511999    10511.219    9275.3852     8695.081    7553.8456   -153.44994   -1082.1525   -416.17134   -5024.3106 
25708000    138.07692   -6660.6444     -6305.45   -6660.6444            0    9774.3062    23.216031    21.064214    21.398397    10464.404    8023.6775    11379.228    9920.0132   -142.94437    13.316743   -308.41504   -4813.7677 
25709000    139.46594   -6662.3621   -6303.5945   -6662.3621            0    8472.5976    23.235014    21.122647    21.394342    10500.022    8498.6704    9016.5021    7902.6202    242.10893   -669.67432   -119.75482   -5006.1682 
25710000    131.36916    -6659.527   -6321.5879    -6659.527            0    8824.5586     23.04187    21.186419    21.572706     10531.25      8903.07    9315.6735    8254.9323    471.68587    46.700885    820.33139   -4966.2462 
25711000    132.78524   -6649.5406   -6307.9587   -6649.5406            0    8161.4144    23.079809    21.318556    21.430786    10544.551    8197.6515    7395.4225    8891.1693    837.01035    602.47462    701.36934   -5052.8844 
25712000     128.5405   -6654.4579   -6323.7953   -6654.4579            0    8312.7722    22.952251    21.457819    21.396859    10538.065    9069.0688    7266.8014    8602.4464    352.33267   -172.81957   -223.62699   -5046.2313 
25713000    136.25323   -6674.9786   -6324.4755   -6674.9786            0    7457.9361    23.019649    21.307173    21.532607    10561.392    7804.1876    7984.0091    6585.6114    950.69353   -910.13975   -186.40605   -5175.7515 
25714000    132.80975   -6656.9627   -6315.3177   -6656.9627            0    8709.7532    23.170955      21.2218    21.388407    10517.308    7483.8143    10063.099    8582.3463    505.70099    472.84669    267.76791   -4979.3797 
25715000    130.23223   -6675.8386   -6340.8241   -6675.8386            0    8241.8154     23.18067    21.224448    21.389201    10523.421    8769.3623    8093.2692    7862.8145   -475.56265   -450.87643   -266.57875   -5075.9255 
25716000    132.29501   -6656.9447   -6316.6238   -6656.9447            0    8144.5153    23.145529     21.07747    21.611824    10543.311    8145.1879    9477.4498    6810.9082    1609.9831   -384.18531   -433.43756   -5064.2957 
25717000    132.62015   -6655.5644   -6314.4072   -6655.5644            0    8843.7857    23.228126     21.16583    21.347152    10495.169    8083.3517     8561.274    9886.7314   -321.43608   -32.446276    1436.7143   -4960.7661 
25718000    142.26065    -6668.876   -6302.9191    -6668.876            0    8996.0252    23.131916    21.192441    21.431226    10506.054    8995.4821    8893.7596    9098.8339   -642.71056     196.3594    -461.0794    -4924.548 
25719000    133.20952   -6661.2071   -6318.5337   -6661.2071            0    8569.8373     23.06839    21.263179    21.474002    10533.155    9202.6339    9158.9322    7347.9458   -856.52678   -26.526496   -417.37427   -5002.0759 
25720000    128.98037   -6665.0365   -6333.2424   -6665.0365            0    8534.6785    23.011566    21.353514    21.381002     10506.15    9307.3112    8153.4783     8143.246    19.788726   -34.692428    259.34697   -5025.5468 
25721000    132.54923   -6662.8552   -6321.8803   -6662.8552            0    8962.0487    22.926066    21.379292    21.478529    10527.552    9457.2787    8539.9078    8888.9595    189.30098    231.46085   -47.870468   -4945.9052 
25722000    133.46856   -6673.8508   -6330.5111   -6673.8508            0    7953.8787    23.067454    21.314156    21.447386    10544.893    8907.2418    6918.8724    8035.5219   -197.45863    -49.54663    309.55756   -5107.3124 
25723000    131.70939   -6664.9557   -6326.1413   -6664.9557            0    8663.3199    23.113159    21.215995     21.48606     10536.09    9155.4284     8006.417    8828.1142   -163.33178    285.99035   -407.14167   -4994.9523 
25724000    139.88207   -6656.0538   -6296.2157   -6656.0538            0    8317.8853    23.150697    21.223287    21.425946    10527.293    8905.5527    8758.2033    7289.8999    -1334.581    74.768652   -450.55845   -5019.1726 
25725000    135.21572   -6668.0016   -6320.1674   -6668.0016            0     9703.958     23.18095    21.124572    21.396109     10477.41    8503.7568    10743.609    9864.5083    922.40364    723.56594     -76.5982   -4837.3804 
25726000    135.03425   -6665.7688   -6318.4014   -6665.7688            0     8615.302    23.090012    21.179885    21.512412    10520.512     9460.694    7906.7228    8478.4891    92.335221   -640.46258    1250.1497   -4996.5481 
25727000    142.03887   -6654.5787   -6289.1924   -6654.5787            0    8233.9779    23.190918    21.233495    21.420593    10548.019    8017.4526    8316.6926    8367.7885    363.51662   -1006.0048   -29.294521   -5022.5427 
25728000    137.97417   -6640.1384   -6285.2082   -6640.1384            0    9653.7296      23.0794    21.118154    21.510713      10484.2    7850.3924    11126.631    9984.1652    597.65999    651.63819   -808.07139   -4809.1405 
25729000    135.60286   -6654.2169   -6305.3867   -6654.2169            0    8733.5618    23.092602    21.159387    21.478663    10495.018    8425.5155    8790.6564    8984.5133    930.97838   -640.49953    710.51426   -4968.6358 
25730000    132.62664   -6638.7928   -6297.6188   -6638.7928            0    8786.1845    23.125338    21.344562    21.355608    10541.133    9377.2475    7530.5097    9450.7965   -86.425698   -184.68213    360.07987   -4946.9045 
25731000    143.56444   -6671.0946   -6301.7839   -6671.0946            0    7368.4193    23.011994    21.332389     21.54016    10574.082    7860.4813    7561.8111    6682.9656   -740.95178    1000.3993   -617.70458   -5165.4842 
25732000    135.03128   -6651.9582   -6304.5984   -6651.9582            0    8818.8622    23.042889    21.264004    21.444299    10507.365    8370.7937    8697.2024    9388.5906    437.93304    870.89132    689.68196   -4953.2035 
25733000    134.57727   -6674.5364   -6328.3446   -6674.5364            0    7659.6679    23.200207     21.25699    21.416787    10562.043    7424.2482    7743.7097    7811.0456   -157.93464   -762.55726    1270.5202   -5148.4757 
25734000    134.95249   -6653.3732   -6306.2161   -6653.3732            0    10125.378    23.242074    21.059042    21.384666    10466.849    8492.3986    11148.061    10735.675    116.52596    105.46963   -177.33281   -4760.5948 
25735000    139.62694     -6674.84   -6315.6582     -6674.84            0    8392.3156     23.24214    21.041443    21.498197    10513.653    7247.9653     10489.61    7439.3715    122.70162 -0.085675196    296.20674   -5028.8573 
25736000     135.7428    -6668.947   -6319.7569    -6668.947            0    8012.1953    23.188411     21.24687    21.368018    10527.619    8454.6231    8213.3845    7368.5785   -4.0761976   -1005.0617   -109.37409   -5089.6082 
25737000    131.51026   -6667.3285   -6329.0264   -6667.3285            0    7649.5662    23.102541    21.231378    21.516704    10553.917    7970.0948    6348.5165    8630.0874    744.28823   -502.14516    612.70823     -5151.62 
25738000     141.3853   -6659.4131   -6295.7081   -6659.4131            0    8495.1734    23.003392    21.416614    21.328898    10507.784    8382.9298    7460.3752    9642.2152   -147.28944    850.37539    629.80394   -4993.8631 
25739000    131.45727   -6663.2122   -6325.0464   -6663.2122            0    7264.0663    23.007822     21.37358    21.525658    10585.448    7684.8669     5912.785     8194.547    242.50687    666.40825    281.40113   -5203.6351 
25740000     135.8821   -6655.2494    -6305.701   -6655.2494            0     8036.142    23.091241    21.291546    21.423364    10532.759    7773.8067    8483.5267    7851.0926    516.75193   -309.05006   -511.10338   -5071.2734 
25741000    132.17047   -6662.9538   -6322.9533   -6662.9538            0    8741.4748    23.182426    21.204837    21.386134    10512.986    8293.3907    8537.2466    9393.7871    -412.4026    565.15953    510.28819   -4982.7006 
25742000    138.35931   -6677.0315   -6321.1107   -6677.0315            0    8049.7755    23.215579    21.096969    21.496005    10528.277    7400.6447    8714.2359    8034.4458   -1066.9501     1150.412   -96.482908   -5085.1149 
25743000    134.53388   -6655.8955   -6309.8153   -6655.8955            0    7873.3353    23.244306    21.161078    21.428408    10540.089    6960.6947    8555.9418    8103.3693    144.66425   -341.08368    718.86648   -5099.5547 
25744000    135.23855   -6670.0834   -6322.1905   -6670.0834            0    8157.7522    23.271483     21.04509    21.523969    10541.374    7801.0446    9211.7311     7460.481   -351.58337   -249.63623   -318.12189   -5068.0575 
25745000    138.81271    -6645.844   -6288.7567    -6645.844            0    8496.0014    23.121226     21.29961    21.421205    10549.367    7643.1365    8718.4889    9126.3789   -1350.9077    583.77799   -397.92847   -4981.6325 
25746000    134.81524   -6670.8961   -6324.0921   -6670.8961            0    8184.8801    23.073516    21.307377    21.415535     10528.65    7871.5246    8017.2817     8665.834    79.504036    522.96571    285.20273   -5067.3074 
25747000     133.1609   -6660.1707   -6317.6224   -6660.1707            0    7676.5304     22.96227    21.478893    21.380959    10545.177    7928.4408    6385.1789    8715.9714    344.26834    900.21025    1139.5882   -5137.0442 
25748000    139.31457   -6668.4167   -6310.0384   -6668.4167            0    7592.4444    23.019184    21.342085    21.494901    10559.958    8068.6322    7585.8595    7122.8414   -530.84285    29.370469   -1229.5419   -5140.7552 
25749000    132.41169   -6653.7425   -6313.1215   -6653.7425            0    9964.9319    22.921713    21.324734    21.396367    10458.532    10359.747    9509.4485    10025.601    39.441765   -258.89236   -519.06453   -4793.2007 
25750000    139.34395   -6644.2632   -6285.8094   -6644.2632            0    8386.3103    23.235398    21.145724    21.422076    10525.294     7202.546    10099.148    7857.2374     494.6205    563.33763   -448.21063   -4998.5056 
Loop time of 527.076 on 64 procs for 250000 steps with 1296 atoms

Performance: 81.962 ns/day, 0.293 hours/ns, 474.315 timesteps/s
99.1% CPU use with 64 MPI tasks x 1 OpenMP threads

MPI task timing breakdown:
Section |  min time  |  avg time  |  max time  |%varavg| %total
---------------------------------------------------------------
Pair    | 30.36      | 41.499     | 52.183     | 109.1 |  7.87
Bond    | 0.28079    | 0.28802    | 0.2976     |   0.8 |  0.05
Kspace  | 267.48     | 278        | 289.13     |  42.4 | 52.74
Neigh   | 1.9331     | 1.9519     | 1.9774     |   0.6 |  0.37
Comm    | 90.383     | 91.662     | 93.62      |   9.4 | 17.39
Output  | 0.5589     | 0.55985    | 0.56086    |   0.1 |  0.11
Modify  | 101.92     | 103.49     | 104.47     |   6.9 | 19.64
Other   |            | 9.622      |            |       |  1.83

Nlocal:        20.2500 ave          26 max          12 min
Histogram: 2 1 9 6 4 9 7 13 6 7
Nghost:        2670.38 ave        2693 max        2636 min
Histogram: 1 2 6 3 7 11 11 10 5 8
Neighs:        6636.73 ave        8581 max        3905 min
Histogram: 2 1 8 7 6 7 8 12 6 7

Total # of neighbors = 424751
Ave neighs/atom = 327.73997
Ave special neighs/atom = 2.0000000
Neighbor list builds = 3529
Dangerous builds = 0

unfix		3
unfix		2
unfix		1

write_data	data.final.${pid}
write_data	data.final.0
System init for write_data ...
PPPM initialization ...
  extracting TIP4P info from pair style
  using 12-bit tables for long-range coulomb (../kspace.cpp:340)
  G vector (1/distance) = 0.37101328
  grid = 27 36 32
  stencil order = 5
  estimated absolute RMS force accuracy = 0.0037702522
  estimated relative force accuracy = 1.1354003e-05
  using double precision FFTW3
  3d grid and FFT values/proc = 4590 540
Last active /omp style is kspace_style pppm/tip4p/omp
WARNING: Not all mixed pair coeffs generated from mixing. Use write_data with 'pair ij' option to store all pair coeffs. (../write_data.cpp:312)

write_restart   restart.lmp.${pid}
write_restart   restart.lmp.0
System init for write_restart ...
PPPM initialization ...
  extracting TIP4P info from pair style
  using 12-bit tables for long-range coulomb (../kspace.cpp:340)
  G vector (1/distance) = 0.37101328
  grid = 27 36 32
  stencil order = 5
  estimated absolute RMS force accuracy = 0.0037702522
  estimated relative force accuracy = 1.1354003e-05
  using double precision FFTW3
  3d grid and FFT values/proc = 4590 540
Last active /omp style is kspace_style pppm/tip4p/omp
Total wall time: 0:08:47
