LAMMPS (30 Jul 2021)
Processor partition = 1
  using 2 OpenMP thread(s) per MPI task
using multi-threaded neighbor list subroutines
variable        pid world 0 1
variable        phase world IceII IceV

shell cd ${phase}
shell cd IceV
include Restart.lmp
echo both
log log.lammps
#include		in.partitions
include		in.temp
variable        temperature equal 6.16
variable	tempDamp equal 100.0
include		in.pressure
variable        pressure equal 9608.3
variable        pressureDamp equal 1000.0 # This is 1 ps
include		in.seed
variable        seed equal 745823

units		real
atom_style	full
read_restart    restart.lmp.${pid}
read_restart    restart.lmp.1
Reading restart file ...
  restart file = 30 Jul 2021, LAMMPS = 30 Jul 2021
  restoring atom style full from restart
  triclinic box = (-3.0245559 -0.024404331 0.13543510) to (14.634555 22.604403 19.094563) with tilt (-0.10294436 -6.6065049 0.12851605)
  2 by 4 by 4 MPI processor grid
  restoring pair style lj/cut/tip4p/long/omp from restart
  restoring bond style harmonic/omp from restart
  restoring angle style harmonic/omp from restart
  1008 atoms
  672 bonds
  336 angles
Finding 1-2 1-3 1-4 neighbors ...
  special bond factors lj:    0        0        0       
  special bond factors coul:  0        0        0       
     2 = max # of 1-2 neighbors
     1 = max # of 1-3 neighbors
     1 = max # of 1-4 neighbors
     2 = max # of special neighbors
  special bonds CPU = 0.002 seconds
  read_restart CPU = 0.008 seconds

include 	in.setup
variable	out_freq equal 1000
variable	out_freq2 equal 10000
variable	out_freq3 equal 1000

timestep	2.0

neigh_modify    delay 7 every 1

include		in.tip4p
# This is TIP4P/Ice

# create groups ###
group ox type 2
336 atoms in group ox
group hy type 1
672 atoms in group hy

# set charges - beside manually ###
set group ox charge -1.1794
Setting atom values ...
  336 settings made for charge
set group hy charge 0.5897
Setting atom values ...
  672 settings made for charge

# ### TIP3P Potential Parameters ###
pair_style lj/cut/tip4p/long/omp 2 1 1 1 0.1577 8.5
pair_coeff 1 1*2 0.000 0.000
pair_coeff 2 2 0.21084 3.1668
bond_style  harmonic
bond_coeff  1 450 0.9572
angle_style harmonic
angle_coeff 1 55 104.52
kspace_style pppm/tip4p/omp 1.0e-5
pair_modify tail yes

thermo          ${out_freq}
thermo          1000
thermo_style    custom step temp pe etotal epair emol press lx ly lz vol pxx pyy pzz pxy pxz pyz enthalpy

restart 	${out_freq3} restart.lmp.${pid} restart2.lmp.${pid}
restart 	1000 restart.lmp.${pid} restart2.lmp.${pid}
restart 	1000 restart.lmp.1 restart2.lmp.${pid}
restart 	1000 restart.lmp.1 restart2.lmp.1


include         in.dump
dump            myDump all atom ${out_freq2} dump.water.${pid}
dump            myDump all atom 10000 dump.water.${pid}
dump            myDump all atom 10000 dump.water.1
dump            myDump2 all dcd ${out_freq2} dump.dcd
dump            myDump2 all dcd 10000 dump.dcd
dump_modify     myDump append yes
dump_modify     myDump2 append yes


variable natoms 	equal  "count(all)"                        # NUMBER ATOMS
variable H      	equal  "enthalpy/v_natoms"                 # ENTHALPY-per-atom
variable Vol      	equal  "vol/v_natoms"                 # volume-per-atom
fix AVG all 		ave/time ${out_freq} 1 ${out_freq} v_Vol v_H file vol_enthalpy.dat
fix AVG all 		ave/time 1000 1 ${out_freq} v_Vol v_H file vol_enthalpy.dat
fix AVG all 		ave/time 1000 1 1000 v_Vol v_H file vol_enthalpy.dat



fix 		1 all shake 1e-6 200 0 b 1 a 1
Finding SHAKE clusters ...
       0 = # of size 2 clusters
       0 = # of size 3 clusters
       0 = # of size 4 clusters
     336 = # of frozen angles
  find clusters CPU = 0.000 seconds
fix             2 all nph tri ${pressure} ${pressure} ${pressureDamp}
fix             2 all nph tri 9608.3 ${pressure} ${pressureDamp}
fix             2 all nph tri 9608.3 9608.3 ${pressureDamp}
fix             2 all nph tri 9608.3 9608.3 1000
fix             3 all temp/csvr ${temperature} ${temperature} ${tempDamp} ${seed}
fix             3 all temp/csvr 6.16 ${temperature} ${tempDamp} ${seed}
fix             3 all temp/csvr 6.16 6.16 ${tempDamp} ${seed}
fix             3 all temp/csvr 6.16 6.16 100 ${seed}
fix             3 all temp/csvr 6.16 6.16 100 745823


run             250000
PPPM initialization ...
  extracting TIP4P info from pair style
  using 12-bit tables for long-range coulomb (../kspace.cpp:340)
  G vector (1/distance) = 0.38019594
  grid = 24 27 32
  stencil order = 5
  estimated absolute RMS force accuracy = 0.0023813537
  estimated relative force accuracy = 7.171376e-06
  using double precision FFTW3
  3d grid and FFT values/proc = 5355 672
Last active /omp style is kspace_style pppm/tip4p/omp
Neighbor list info ...
  update every 1 steps, delay 7 steps, check yes
  max neighbors/atom: 2000, page size: 100000
  master list distance cutoff = 10.8154
  ghost atom cutoff = 10.8154
  binsize = 5.4077, bins = 5 5 4
  1 neighbor lists, perpetual/occasional/extra = 1 0 0
  (1) pair lj/cut/tip4p/long/omp, perpetual
      attributes: half, newton on, omp
      pair build: half/bin/newton/tri/omp
      stencil: half/bin/3d/tri
      bin: standard
Setting up Verlet run ...
  Unit style    : real
  Current step  : 10250000
  Time step     : 2
Per MPI rank memory allocation (min/avg/max) = 10.32 | 10.33 | 10.34 Mbytes
Step Temp PotEng TotEng E_pair E_mol Press Lx Ly Lz Volume Pxx Pyy Pzz Pxy Pxz Pyz Enthalpy 
10250000    6.8724457    -5362.087   -5348.3413    -5362.087            0    9649.4217    17.659111    22.628808    18.959128    7576.1551    9504.6536    9542.3925    9901.2188   -260.28656    37.443572    267.69242   -4282.1723 
10251000    6.0830209   -5361.9196   -5349.7528   -5361.9196            0    9571.4372    17.664721    22.606096    18.962511     7572.307    9941.5844    9372.2792    9400.4478     160.4291   -91.411791    138.29277   -4292.7375 
10252000    6.1872306   -5363.0593   -5350.6841   -5363.0593            0    9560.8651    17.678443    22.578875    18.983611    7577.4862    9943.6055     9532.612    9206.3779   -34.206491   -106.87156   -98.223353   -4294.1142 
10253000    5.9995446   -5362.4001   -5350.4003   -5362.4001            0    9662.6574    17.679276    22.576527    18.977707    7574.6989    9709.2317    9591.3186    9687.4219   -62.055129   -138.86146    250.24667   -4282.9741 
10254000    5.9937304   -5362.0966   -5350.1084   -5362.0966            0    9693.3473    17.657139    22.592952    18.976208    7570.1199    9885.5707    9671.2145    9523.2566   -105.34431    97.557627    3.4957152   -4279.9393 
10255000    6.1236522   -5361.7052   -5349.4571   -5361.7052            0    9772.2314     17.66444    22.603899    18.960197    7570.5264    9971.1124    9834.8311    9510.7508   -125.89849    28.779043    105.40804   -4270.5211 
10256000    6.2208328   -5362.1996   -5349.7571   -5362.1996            0    9603.0798     17.70391    22.540301    18.989769    7577.8952    9687.2208    9705.3021    9416.7166     77.81855    58.108857    143.22781   -4288.4648 
10257000    6.1289502   -5363.2917    -5351.033   -5363.2917            0    9596.0233    17.708294    22.551379    18.981339    7580.1307     9609.881    9582.2304    9595.9585    236.49677   -109.26633    35.931488   -4290.2077 
10258000    6.0920567   -5361.5344   -5349.3496   -5361.5344            0    9592.0497    17.662701    22.629723    18.939256    7570.0591    9716.5462    9479.5575    9580.0452    209.66952   -115.00523   -132.88449   -4290.3724 
10259000    6.5246719   -5362.3719   -5349.3218   -5362.3719            0    9632.8562    17.687247    22.581666    18.960176    7572.8368    9635.1708    9445.5581    9817.8396    254.24837    8.0967462    60.323632   -4285.4493 
10260000    6.1598267   -5361.4256   -5349.1052   -5361.4256            0    9599.2145    17.702969     22.55461    18.966244    7572.9095     9557.623    9654.7905      9585.23    330.88199   -72.277378    94.104805    -4288.938 
10261000    6.0585591   -5362.5161   -5350.3982   -5362.5161            0     9593.403    17.690227    22.563592    18.973751    7573.4689    9712.4484    9460.9337    9606.8269    274.71453   -82.714446    141.61935   -4290.7946 
10262000    6.3261236   -5361.2041   -5348.5511   -5361.2041            0    9569.1368    17.664029     22.61909    18.952395    7572.3204    9733.9232    9347.0376    9626.4497    219.89991   -147.34582     395.0718    -4291.788 
10263000    6.3574461   -5361.7322   -5349.0165   -5361.7322            0    9595.7536    17.711251    22.568632    18.949427    7574.4404    9338.0744     9787.803    9661.3833   -220.24415   -59.532466   -374.42388   -4289.0173 
10264000    6.1362811   -5362.0181   -5349.7448   -5362.0181            0    9609.7653    17.642212    22.621438     18.96865    7570.2401    9724.5962    9516.7005    9587.9993     178.5148   -117.92856   0.17799379   -4288.7865 
10265000    6.2713715   -5361.8558   -5349.3122   -5361.8558            0    9621.1673    17.680571    22.603927    18.941908    7570.1395    9476.5025    9551.3588    9835.6407    170.88719   -29.453562    -36.99171   -4287.1092 
10266000    6.3210784   -5362.6248   -5349.9818   -5362.6248            0     9507.454    17.655123    22.658682    18.939754    7576.6937     9502.081    9399.0071     9621.274   -172.90762    80.608985   -88.507243   -4299.4243 
10267000    6.2886301   -5362.7888   -5350.2108   -5362.7888            0    9660.2544    17.663383    22.600647    18.974199    7574.5736    9718.1833    9562.0854    9700.4945    11.952511   -101.20286    49.780987   -4283.0677 
10268000    6.1663486   -5362.7178   -5350.3844   -5362.7178            0    9583.3948    17.698096    22.567767    18.961636    7573.4006    9483.3313    9600.1705    9666.6825    24.423385   -223.15973    59.856875   -4291.8957 
10269000    6.0943966   -5362.5119   -5350.3223   -5362.5119            0     9587.803    17.694715     22.58107     18.96159    7576.3991    9501.8323    9592.8175    9668.7593   -155.95381    88.505371   -62.536849   -4290.9275 
10270000    6.0884495   -5361.8776   -5349.6999   -5361.8776            0    9606.6474    17.745241    22.522285    18.945323     7571.752    9439.5535    9692.0841    9688.3047   -20.231286    34.046563   -99.713319    -4288.874 
10271000    5.9895646   -5362.3566   -5350.3767   -5362.3566            0    9711.9493    17.685008    22.569697    18.973507    7573.1857    9773.5994    9755.6971    9606.5515    114.65025    141.35099   -165.24201   -4277.7196 
10272000    6.1389554    -5362.335   -5350.0563    -5362.335            0    9653.4988    17.702889    22.548494    18.977108    7575.1581    9595.9923    9671.6645    9692.8395   -122.07361   -214.74936   -241.23417   -4283.5772 
10273000    5.9791734   -5362.3985   -5350.4394   -5362.3985            0    9664.9955    17.678162    22.622146    18.941258    7574.9492    9570.3571    9603.4303     9821.199    261.61221   -188.79771    4.5393434   -4282.7197 
10274000    6.3592855   -5361.4589   -5348.7395   -5361.4589            0    9615.4998    17.722598    22.522913    18.977004    7574.9468    9315.4968     9837.117    9693.8857   -37.401391   -52.231799   -92.734969   -4286.4881 
10275000    6.2851717   -5362.0323   -5349.4612   -5362.0323            0    9552.3843    17.639421     22.61991    18.980732     7573.352    9770.9268    9446.9892     9439.237    23.760171    29.314401   -74.723586   -4294.4045 
10276000     6.357128   -5362.7899   -5350.0748   -5362.7899            0    9598.0407     17.69122     22.55163    18.989155    7576.0245    9706.1334    9442.8145    9645.1743    189.39796    11.656023    261.84351   -4289.6013 
10277000    6.3304676   -5362.0159   -5349.3542   -5362.0159            0    9574.7566    17.649699    22.625485    18.971769    7576.0536    9650.5504       9493.1    9580.6192   -145.35621   -69.175283    -153.2258   -4291.4492 
10278000    6.0231798   -5361.9521    -5349.905   -5361.9521            0    9572.3071    17.685415    22.507744    19.020493    7571.2744    9737.4271    9666.3127    9313.1816    86.771648   -184.72393   -12.230904   -4292.9378 
10279000    6.1862249   -5362.1387   -5349.7655   -5362.1387            0    9690.8282    17.694695    22.529414    18.997151    7573.2355    9566.4783    9905.0794     9600.927    -46.10287    22.013614    68.711035   -4279.4341 
10280000    6.2096012    -5362.359   -5349.9391    -5362.359            0    9508.0326    17.708104    22.555177    18.974945    7578.7717    9598.1752     9477.448    9448.4746    168.64037    77.215889    116.43454   -4299.0294 
10281000    6.2066641   -5361.6609   -5349.2468   -5361.6609            0    9636.9551     17.69564    22.574754    18.956744    7572.7399     9592.784     9750.022    9568.0594   -21.818493   -171.65172   -334.48866   -4284.9353 
10282000    6.4117351   -5362.2383    -5349.414   -5362.2383            0     9657.312    17.701542    22.535848     18.97887     7571.037    9305.0346    9887.0377    9779.8638   -6.6743212    72.029041    262.93974   -4283.0941 
10283000     5.962167   -5361.7724   -5349.8474   -5361.7724            0    9587.0118    17.679889    22.629244     18.93578    7575.8746    9513.3744    9402.8002    9844.8606   -26.707257    66.522018   -63.653836   -4290.6133 
10284000    6.0851493   -5362.7412   -5350.5702   -5362.7412            0    9640.7264    17.720125    22.526957    18.973283    7573.7648    9549.7793    9640.1425    9732.2573   -207.25473   -94.689869    15.829492   -4285.6981 
10285000    5.9642309    -5362.458   -5350.5288    -5362.458            0    9553.3798    17.640884    22.648777    18.952412    7572.3307    9542.6571    9418.0106    9699.4718    143.67882   -169.32312    69.537884   -4295.5044 
10286000    5.9572922   -5362.9578   -5351.0424   -5362.9578            0    9514.4796    17.713137    22.581625    18.942128    7576.6885    9302.0273    9421.2202    9820.1913   -156.79143   -23.477048    17.096325   -4299.7093 
10287000    6.1672192   -5361.6976   -5349.3624   -5361.6976            0    9539.2972    17.696352    22.607021    18.929758    7573.0732    9456.0295    9453.7703    9708.0917    66.332619    17.585629    146.61809   -4295.7899 
10288000    6.0449275   -5361.8021   -5349.7115   -5361.8021            0    9560.0667    17.693359    22.589289     18.94838    7573.2963    9521.2847    9645.1305    9513.7849    -80.44959    43.836937   -210.66637    -4293.814 
10289000    6.1855287   -5362.0846   -5349.7128   -5362.0846            0    9581.7308    17.664668    22.642487    18.934938    7573.4455    9566.0543    9579.5176    9599.6204   -59.838653    21.042482   -160.57048   -4291.4016 
10290000    6.1433486   -5361.6247   -5349.3372   -5361.6247            0    9655.1939    17.647258    22.631282    18.957795    7571.3654    9693.9321    9541.1364    9730.5132   -7.9330364    23.255206      -202.71   -4283.2049 
10291000    6.1360219   -5361.7368    -5349.464   -5361.7368            0    9619.0866    17.684987    22.609388    18.937591     7572.134    9691.0935    9492.1517    9674.0147   -42.370921   -75.168265   -178.14211   -4287.2109 
10292000    6.3874349   -5362.0543   -5349.2787   -5362.0543            0    9731.8063     17.67619    22.591231    18.954293    7568.9587    9753.9277    9694.3148    9747.1762    75.495378    -103.7816    69.584455   -4275.0284 
10293000    6.4268528    -5362.321   -5349.4665    -5362.321            0    9589.9341    17.666519    22.599475    18.971935    7574.6219    9733.9978    9421.0314     9614.773   -58.491442    -147.1999    351.78517   -4290.0848 
10294000    6.1104372   -5363.6692   -5351.4476   -5363.6692            0    9580.8801    17.707608    22.570315    18.962487    7578.6669     9541.125    9566.4147    9635.1006   -62.159612   -27.190433   -34.959685   -4292.5009 
10295000    5.9015659   -5363.4443   -5351.6404   -5363.4443            0    9574.9077    17.655958    22.607766    18.985702    7578.3661    9571.3671    9549.8983    9603.4577    52.526995     -46.6319    132.86765   -4293.3958 
10296000    6.2332273   -5363.8954   -5351.4282   -5363.8954            0    9605.0003    17.708514    22.505947    19.008625    7575.8279    9632.7968    9742.2506    9439.9536    159.95657   -108.29203   -74.420762   -4290.2132 
10297000    6.2919289   -5363.0347     -5350.45   -5363.0347            0    9606.6236    17.687365    22.570446    18.975801    7575.3623    9643.2026    9639.2188    9537.4495    -263.6281    162.49407   -103.91578   -4289.1209 
10298000    6.3093744   -5363.1601   -5350.5406   -5363.1601            0    9548.9889    17.688731    22.574625    18.967039    7573.8512    9640.7144    9497.0403     9509.212    124.98926    7.0108068    164.68589   -4295.7893 
10299000    6.5685562     -5362.39    -5349.252     -5362.39            0    9616.9854    17.669396    22.590237    18.971517     7572.592    9710.6102    9642.3516    9497.9943   -148.78001   -131.43326   -134.15212   -4287.1667 
10300000    5.9651418   -5362.3585   -5350.4275   -5362.3585            0    9550.8828    17.671519    22.592337    18.972282    7574.5111    9414.6072    9672.8875    9565.1536   -235.68661    178.72926    66.635287   -4295.3751 
10301000    6.4125079    -5361.535   -5348.7092    -5361.535            0    9637.1555    17.699408    22.523125    18.999603    7574.1156     9631.452    9773.8082    9506.2063    14.109672   -244.96366   -84.103484   -4284.1822 
10302000     6.214994    -5362.781   -5350.3503    -5362.781            0     9602.801    17.658647    22.640725    18.950551    7576.5168    9606.7776    9526.3016    9675.3238   -9.9028875    249.19824    164.24033   -4289.2818 
10303000    6.0015414   -5363.2507   -5351.2469   -5363.2507            0    9560.2223    17.699389    22.587513    18.946539    7574.5452    9735.7871    9460.0131    9484.8668    10.977827    5.0879014    31.511504    -4295.158 
10304000    6.3008389   -5362.3381   -5349.7357   -5362.3381            0    9488.0387    17.669207    22.678713    18.906717    7576.2029    9452.7922    9294.2477    9717.0762    11.311217   -50.124275   -231.14739   -4301.3914 
10305000    6.2472219   -5363.4113    -5350.916   -5363.4113            0    9484.4835     17.69543    22.565626    18.989211    7582.5526    9426.9124    9497.8369    9528.7011    192.07853    70.195598   -3.4695275   -4302.0863 
10306000    6.3062798   -5361.5719   -5348.9585   -5361.5719            0    9568.2018    17.683692    22.620142    18.932063    7572.9694    9545.6742      9683.64    9475.2911    52.969178    104.31206   -209.69117   -4292.2081 
10307000    5.8860675   -5362.8206   -5351.0477   -5362.8206            0    9589.4253    17.699957    22.562527    18.969166    7575.4459    9497.4301    9644.9871    9625.8588   -36.245067    37.711681   -45.679571    -4291.607 
10308000    6.0960373   -5361.8619   -5349.6691   -5361.8619            0    9685.0088    17.685267    22.641592    18.909367    7571.7379    9547.7785    9542.4286    9964.8194   -106.87612   -108.17517    2.0268274    -4280.192 
10309000     6.186532   -5361.5975   -5349.2236   -5361.5975            0    9637.3343    17.690314    22.575375    18.961663    7572.6335    9764.9411    9584.2754    9562.7864    38.655998   -56.336534   -187.30318   -4284.8852 
10310000    6.2952174   -5362.7486   -5350.1574   -5362.7486            0    9600.7554    17.679821    22.631359    18.935186    7576.3162    9608.7251    9519.0649    9674.4762   -100.24524    157.24029    57.068021   -4289.3431 
10311000     6.041183   -5361.7988   -5349.7157   -5361.7988            0    9604.8192    17.738891    22.497796    18.987509    7577.6484    9390.7974     9702.824    9720.8362    103.01133    35.345121   -45.365439   -4288.2657 
10312000    6.4652137   -5361.7487   -5348.8175   -5361.7487            0    9578.7672    17.670023    22.610538    18.955938    7573.4421    9680.7186     9522.952     9532.631    353.13972   -140.26577    55.593621   -4290.8342 
10313000    6.3387029   -5362.4607   -5349.7825   -5362.4607            0    9643.9075    17.708159    22.589812    18.936089    7574.8894    9458.3794    9543.2457    9930.0976   -360.40375     1.096838   -57.304304   -4284.4008 
10314000    5.8522596    -5361.593   -5349.8878    -5361.593            0    9593.5766    17.667771     22.62014    18.946251    7571.8211     9728.726    9318.8451    9733.1586    171.64455   -73.250889    268.37468   -4290.4956 
10315000    6.0903993   -5362.1499   -5349.9684   -5362.1499            0    9633.2536    17.711685    22.508074    18.999866    7574.4091    9552.4182      9830.42    9516.9225   -38.501272    43.533597   -331.12262   -4285.8312 
10316000    6.3785839   -5361.6325   -5348.8745   -5361.6325            0    9639.2977    17.644738    22.575582    19.011584    7573.0784    9628.7821    9768.3225    9520.7886    188.48672    38.395685     -230.501   -4284.2567 
10317000    6.3251501   -5363.0136   -5350.3625   -5363.0136            0    9558.7597    17.689997    22.569221    18.971286    7574.2752    9568.0916    9612.8068    9495.3806   -280.34925    72.585345   -198.05516   -4294.4729 
10318000    6.3123289   -5362.4553   -5349.8299   -5362.4553            0    9596.0119    17.674412    22.594483    18.965483    7573.7555    9494.2174    9707.3793     9586.439   -131.09638   -16.831637    -40.07074    -4289.898 
10319000    6.1356284   -5362.7007   -5350.4287   -5362.7007            0    9589.6069    17.649209    22.615349    18.974335    7573.4734    9683.7072    9511.7142    9573.3993    152.32995   -72.479344    -128.1364   -4291.2438 
10320000    6.2052476   -5362.0224   -5349.6112   -5362.0224            0    9611.4166    17.668734    22.578777    18.986953    7574.6244    9745.3815    9524.0394     9564.829   -154.12843   -154.56213    -69.12757    -4287.856 
10321000    6.2490418    -5361.691   -5349.1922    -5361.691            0    9634.6408    17.681685    22.594563    18.952916    7571.8785    9680.2515    9661.5637    9562.1073    284.33132   -187.77906    7.2179045   -4285.2573 
10322000    6.1457569   -5360.4656   -5348.1733   -5360.4656            0    9695.9581    17.673235     22.61235    18.945594    7571.2918    9672.0948    9634.9759    9780.8037    192.24547    140.88233     -147.712   -4277.5502 
10323000     6.039344   -5362.6134    -5350.534   -5362.6134            0    9555.8046    17.692646    22.559344    18.974288    7573.2932    9556.4278    9655.5358    9455.4502   -207.75384    32.928053    239.69417   -4295.1077 
10324000    5.8411412     -5362.88    -5351.197     -5362.88            0      9577.28     17.69223    22.577454    18.963078     7574.716    9552.8282    9719.7312    9459.2805   -15.584531    421.30482    42.710682      -4293.2 
10325000    5.9571286   -5361.7549   -5349.8399   -5361.7549            0    9743.7504    17.682384    22.576513    18.967451    7571.9311    9730.8472    9709.2706    9791.1332    145.68578    28.378771    113.92665   -4273.8488 
10326000    6.2209989   -5361.8108    -5349.368   -5361.8108            0    9685.6595    17.689441    22.563081    18.972419    7572.4295    9650.8819    9716.0008    9690.0957     -146.871     102.5412     -341.641   -4279.7214 
10327000    5.8221389   -5362.3713   -5350.7264   -5362.3713            0    9561.8405    17.693831    22.610154    18.934459     7574.924    9681.1658    9276.1516    9728.2041    213.94626   -121.38968    370.67318    -4294.406 
10328000     6.559874   -5362.5672   -5349.4466   -5362.5672            0    9564.3975    17.740119    22.563972    18.928191     7576.719    9430.7095    9448.5812    9813.9017    18.021016   -72.157571    272.89536   -4292.5934 
10329000     6.062851    -5362.752   -5350.6255    -5362.752            0    9607.0027    17.697017    22.551332    18.975452    7572.9378    9687.1844    9798.7361    9335.0876   -135.81597   -146.60537   -66.888172   -4289.5942 
10330000    6.2539152   -5361.6152   -5349.1066   -5361.6152            0    9524.1734    17.682709    22.600381    18.949939    7573.0772    9557.8385    9368.7981    9645.8836    3.7588417   -150.12752   -206.90124   -4297.2039 
10331000    6.1780095   -5362.2408    -5349.884   -5362.2408            0     9662.078    17.670504    22.604068    18.956282    7571.6182    9605.9725    9655.9149    9724.3467    118.73028    137.41026   -214.38037   -4282.9559 
10332000    5.9778788   -5362.5627   -5350.6062   -5362.5627            0     9584.006     17.68864    22.569274     18.97473    7575.0871    9529.0129     9539.427    9683.5779    229.30939   -31.674356    139.61699   -4291.8143 
10333000    6.3459648   -5361.4849   -5348.7921   -5361.4849            0    9705.2319     17.66334    22.623333    18.945831    7570.8228    9816.5648    9560.9332    9738.1976    74.477558   -10.093486    90.052887   -4277.2114 
10334000    6.3872281   -5362.7788   -5350.0036   -5362.7788            0    9550.7973    17.704079    22.564944    18.973588    7579.7881    9619.7352    9503.0835    9529.5732     143.3671    11.644897    91.126567   -4294.2257 
10335000    6.1451266   -5362.9672   -5350.6762   -5362.9672            0    9576.7324    17.688023    22.608209      18.9422     7574.882    9623.1776    9503.0918    9603.9279   -12.152078     114.4245    13.652495   -4292.7165 
10336000    6.1372719   -5362.2322   -5349.9569   -5362.2322            0     9719.855    17.645041    22.595217    18.989313     7570.916    9925.7059     9705.297    9528.5623    215.26367     74.86501     3.322241   -4276.7484 
10337000    6.3543655   -5362.5746   -5349.8651   -5362.5746            0    9611.1596     17.68976    22.576811    18.957651    7571.2757     9715.895    9625.4416    9492.1421   -131.78296    25.687725    159.95747   -4288.6077 
10338000    6.1841823   -5361.3685   -5348.9993   -5361.3685            0    9658.0176    17.699257     22.54649    18.968967    7569.6821    9741.4045    9556.8324    9675.8158   -213.87503   -175.93529    55.485365   -4282.7924 
10339000    5.6697175   -5362.1747   -5350.8346   -5362.1747            0    9645.6703    17.673456    22.606772    18.951254      7571.78    9785.2736    9494.2206    9657.5168   -263.95818   -35.442686   -18.351047   -4285.6956 
10340000    6.0361918   -5361.8978   -5349.8247   -5361.8978            0    9643.4823    17.689114    22.543343    18.987884    7571.8321    9552.6869    9736.7367    9641.0234    -8.146188    -55.70055    235.41648   -4284.9199 
10341000    5.9171996    -5362.535   -5350.6999    -5362.535            0    9624.6157    17.680838    22.568978    18.977953    7572.9332    9647.5406    9705.1962    9521.1102    -159.5223    241.47416   -67.325097    -4287.724 
10342000    6.1578693   -5363.0631   -5350.7466   -5363.0631            0    9620.3899    17.690224    22.559884    18.983314    7576.0397    9419.1034    9706.1614    9735.9048    193.41125   -64.215757   -52.970897   -4287.8016 
10343000    6.4839942   -5362.4188     -5349.45   -5362.4188            0    9602.3769    17.649251    22.593632    18.992978    7573.6529    9639.1058    9593.7524    9574.2726    150.25721    73.961761     7.471054   -4288.8294 
10344000    6.3615085   -5364.1094   -5351.3856   -5364.1094            0    9507.9652    17.707419    22.567544    18.969947    7580.6364    9381.6005    9501.5769    9640.7183    41.766351    31.366213    87.382293   -4300.2248 
10345000    5.7780635   -5362.5538    -5350.997   -5362.5538            0    9596.7304    17.695393    22.591666    18.943356    7572.9553     9260.115    9717.1461    9812.9302    169.77291    27.667179    32.207762   -4291.0977 
10346000    6.2928261   -5362.0331   -5349.4466   -5362.0331            0    9665.9026    17.713241     22.53631    18.975746    7574.9485    9655.7402    9684.8012    9657.1664   -12.033234    107.94488    14.709668   -4281.6268 
10347000    6.0934542    -5360.706   -5348.5183    -5360.706            0     9801.102    17.672202     22.60795    18.934157    7564.8062    9828.0687    9761.0254    9814.2117    162.54459   -61.129582   -235.04485   -4267.2124 
10348000    6.2583222   -5363.3163   -5350.7988   -5363.3163            0    9504.4858    17.721308    22.572078    18.951182    7580.6007    9413.2046    9484.4092    9615.8435   -167.71405    -47.95671   -283.36361   -4300.0277 
10349000    6.0542547   -5361.2571   -5349.1479   -5361.2571            0    9627.8488    17.673425    22.657124     18.90748    7571.1027     9761.646    9418.5759    9703.3244    168.16066    -237.5373   -256.62697   -4286.0719 
10350000    6.0372039   -5362.4219   -5350.3468   -5362.4219            0    9573.2606    17.701408    22.561646      18.9668    7574.8259    9622.4777    9674.6986    9422.6056     -130.488    63.689315   -24.696494   -4292.7785 
10351000    6.0134684   -5363.6231   -5351.5954   -5363.6231            0    9569.3106    17.691496    22.551186    18.999216    7580.0072    9732.4129    9595.1492    9380.3698   -98.257261    26.651344   -212.87224   -4293.7404 
10352000     6.262408   -5362.3749   -5349.8493   -5362.3749            0    9568.1395    17.664011     22.65499    18.929999     7575.369    9623.8221    9422.8642    9657.7321   -117.40337    100.06809    51.267689    -4292.771 
10353000    6.3839227   -5361.9512   -5349.1826   -5361.9512            0    9604.3425    17.672077    22.612957    18.949956    7572.7423    9545.5428    9643.5466     9623.938   -33.390467   -26.250691   -157.80087   -4288.4725 
10354000    6.3384182     -5361.84   -5349.1624     -5361.84            0     9636.817    17.699656    22.574366    18.945468    7569.8229    9608.5016     9549.318    9752.6312    349.23071   -326.04709    302.70521   -4285.2761 
10355000    6.4152406   -5362.4741   -5349.6428   -5362.4741            0    9612.5703    17.701135    22.550244    18.993232     7581.432    9893.1494    9482.5414      9462.02   -171.97638   -141.71971   -27.511044   -4286.8058 
10356000    5.7821647     -5362.74   -5351.1749     -5362.74            0    9563.6486    17.673677    22.626091     18.94269    7574.9208    9513.0515    9520.6894     9657.205    163.16544    42.484668    219.46025   -4294.6552 
10357000    6.3772602   -5362.4688   -5349.7135   -5362.4688            0    9709.0997    17.704937    22.520548    18.994753    7573.6806    9629.0674    9897.8736    9600.3582    24.234291   -38.984314    18.929691    -4277.301 
10358000    6.2387544   -5361.9452   -5349.4669   -5361.9452            0    9586.0895    17.682511    22.582488    18.962348    7571.9518    9587.8561    9713.8283    9456.5841   -14.037243   -75.948584    148.84526   -4290.8832 
10359000     6.388465   -5363.4714   -5350.6937   -5363.4714            0    9572.9477    17.688685    22.533697    19.015506    7579.4183    9725.8846     9681.037    9311.9216   -468.35812    55.954896   -185.17327   -4292.5188 
10360000    6.1222478   -5361.6112   -5349.3659   -5361.6112            0    9533.8942    17.629616    22.639278     18.97251    7572.3419     9600.216    9707.1475     9294.319    96.048177    284.79771   -122.11695   -4296.4919 
10361000    6.3687833   -5361.6019   -5348.8635   -5361.6019            0     9661.813    17.692166    22.555487    18.978037    7573.2886    9591.4755    9754.0309    9639.9327    33.431877   -2.3984604    186.80912   -4281.7294 
10362000    6.0925985   -5362.1767   -5349.9908   -5362.1767            0    9585.3375    17.668012    22.606575    18.954566    7570.7047    9753.4687    9523.4426    9479.1011   -503.62574   -31.134826    153.31185   -4291.6644 
10363000    6.0793811   -5362.4216   -5350.2621   -5362.4216            0    9566.4952    17.661453    22.600311    18.970977    7572.3477    9579.9465    9601.8479    9517.6912   -184.60963    -23.80373    155.82621   -4293.7869 
10364000    6.4351026   -5362.1976   -5349.3266   -5362.1976            0    9514.6882    17.664719    22.591357    18.982955    7575.5272    9478.5948    9609.8672    9455.6027   -257.28962   -64.120054   -117.17831   -4298.1316 
10365000    5.9990388   -5362.5649   -5350.5661   -5362.5649            0    9614.9188    17.683038    22.575584    18.976918    7575.6787    9430.7022    9617.9843    9796.0698    318.97411    131.04162      497.305   -4288.2762 
10366000    5.9434026   -5362.9514   -5351.0638   -5362.9514            0    9458.8241    17.678528    22.598588    18.968333    7578.0346    9433.2171    9427.3696    9515.8856   -2.4619219    53.772353   -219.40846   -4305.6948 
10367000    5.9160307   -5363.0097   -5351.1769   -5363.0097            0    9476.3112    17.691326    22.584757    18.968919    7579.1128    9353.8174     9628.512    9446.6044    133.11198    39.108503     57.45327   -4303.7262 
10368000    5.8627927   -5362.5305   -5350.8042   -5362.5305            0     9678.908    17.696358    22.579003    18.964478    7577.5631    9912.3876     9497.395    9626.9415   -262.88586    50.799351    60.474741   -4281.1786 
10369000    5.9756614   -5361.8451    -5349.893   -5361.8451            0    9673.8618    17.675708    22.597039     18.95515    7571.0405    9714.0278    9638.2937    9669.2638    158.41746    76.078484    -188.1402   -4281.7453 
10370000    5.9847005   -5362.4577   -5350.4875   -5362.4577            0    9553.7847    17.702582    22.575805     18.96199    7578.1599    9527.0353     9542.711    9591.6077   -132.13738    62.894119    153.33942   -4294.6062 
10371000    6.0758539   -5363.2409   -5351.0885   -5363.2409            0    9561.3419    17.687549    22.581132    18.976217    7579.1939    9588.0621    9492.2856    9603.6781    165.87599    115.21354   -109.54745   -4294.2278 
10372000    6.2731551   -5361.7759   -5349.2288   -5361.7759            0     9592.742    17.716282     22.55667    18.951081    7573.2372    9635.3508    9477.8099    9665.0653    106.44689   -186.66037   -40.174943   -4289.7306 
10373000    6.0585996   -5361.1613   -5349.0434   -5361.1613            0    9680.0526    17.666349    22.625965    18.933588    7568.0993    9665.7994    9652.5633    9721.7952   -259.39478   -62.708096    337.46778   -4280.6273 
10374000    6.2600938   -5362.4785   -5349.9576   -5362.4785            0    9536.7499    17.691416    22.638048    18.918854    7576.9845     9415.718    9352.2756    9842.2562   -33.376522   -3.7071287    108.83369   -4296.1224 
10375000    6.3998891   -5362.6398   -5349.8392   -5362.6398            0    9592.4569    17.673302    22.618055    18.953752    7576.4917    9550.0373    9616.0708    9611.2627    52.326705    327.51839   -46.327553   -4289.9173 
10376000    5.9712585   -5362.1226   -5350.1793   -5362.1226            0    9633.5275    17.653857    22.635032     18.95968    7576.2055    9588.2742    9663.2434    9649.0648    305.65951    127.12617    141.48942   -4285.7594 
10377000    5.7392287   -5361.0957   -5349.6165   -5361.0957            0    9567.1625    17.696772     22.58922    18.940054    7571.4053    9605.8289    9465.6855    9629.9732   -53.368617    253.00459    -72.40949   -4293.1991 
10378000    6.0795902   -5362.6197   -5350.4597   -5362.6197            0     9558.692    17.692718    22.590624    18.949296    7573.8355    9379.6367    9721.4885    9574.9508    33.828472    56.095029    228.43524   -4294.6389 
10379000    6.4690751   -5361.8954   -5348.9565   -5361.8954            0    9597.0708    17.678406    22.582052    18.973961    7574.6837    9657.2699    9454.6708    9679.2718    76.891989    5.3660085    263.42413   -4288.7778 
10380000    5.7488491    -5362.823   -5351.3246    -5362.823            0    9580.2462     17.67329    22.568934    18.995203    7576.5654    9633.3492     9638.053    9469.3364   -137.99082    30.047949   -202.78313   -4292.7415 
10381000    5.9583867   -5362.3991   -5350.4816   -5362.3991            0    9635.2591    17.667603    22.581745     18.97599    7570.7614    9386.9813    9877.2766    9641.5194    58.134653    37.912863   -152.76341   -4286.6354 
10382000    6.3973359   -5361.2704    -5348.475   -5361.2704            0    9655.4279    17.652461    22.640167    18.941062    7569.8838    9696.7875    9549.0667    9720.4296    222.77138    114.08605   -165.14151   -4282.5255 
10383000    6.1043543   -5362.3617   -5350.1522   -5362.3617            0     9575.468     17.66771    22.573296    19.003857    7579.0887    9567.6947    9607.6874     9551.022   -180.63477   -99.445992    134.19785   -4291.7448 
10384000    6.0055865    -5361.874   -5349.8621    -5361.874            0    9679.6351      17.6629    22.609215     18.95464    7569.4275    9687.3071    9639.9096    9711.6886    90.632035    57.872183   -46.320762   -4281.3046 
10385000    6.0690489   -5362.6728   -5350.5339   -5362.6728            0    9640.3534    17.715191     22.48249    19.019333    7575.0504    9465.8789    9978.4852    9476.6962    48.451409    194.97143   -40.013723   -4285.5222 
10386000    6.3578976   -5361.5014   -5348.7848   -5361.5014            0    9667.0871     17.70857     22.55156     18.95022    7567.8815    9269.2214    9776.6082    9955.4316   -29.068496   -60.357399   -4.2269256   -4281.8304 
10387000    5.8800323     -5362.02   -5350.2592     -5362.02            0    9664.4721    17.705756    22.523215    18.990533    7573.2448    9591.4993    9914.1689    9487.7481    157.66265    91.345601   -218.80008   -4282.8375 
10388000    6.3390809   -5362.1026   -5349.4236   -5362.1026            0    9671.6286     17.69675    22.556721    18.966239    7570.9556     9529.218    9787.9488    9697.7189   -81.587292    2.7717098    14.824434   -4281.5344 
10389000    5.8204291   -5362.7461   -5351.1046   -5362.7461            0    9489.8165    17.702028    22.577119    18.966706    7580.2489    9537.9117    9442.7142    9488.8234   -82.519292    96.403229    -26.87128   -4302.0039 
10390000    6.1935259     -5361.62   -5349.2321     -5361.62            0    9653.1052    17.687604    22.569005    18.969788    7572.5806    9776.5112    9772.8221    9409.9824    267.05463   -27.927791   -114.95745   -4283.1594 
10391000    6.0897231   -5361.6337   -5349.4535   -5361.6337            0    9691.8613    17.674878    22.617031    18.938589     7570.763    9777.5312    9577.9234    9720.1292    53.319769   -36.743221    48.870893   -4279.3575 
10392000    6.1684342   -5362.5773   -5350.2397   -5362.5773            0    9585.8028    17.690063      22.5504    18.990263    7575.5577    9635.1848    9635.6585    9486.5651    151.33106   -138.43153    44.877115   -4291.1835 
10393000    5.8327155   -5361.3618   -5349.6957   -5361.3618            0    9606.1011    17.679014    22.569556    18.976254    7571.6679    9546.6067    9792.2476    9479.4489   -87.763972    -111.7054     62.61935   -4288.9419 
10394000    6.2748211    -5363.095   -5350.5446    -5363.095            0    9517.2714    17.659206     22.60623    18.986292    7579.4809    9565.8987    9411.6444     9574.271    67.912834    176.06368    12.236021   -4298.5154 
10395000    6.0771247   -5361.8476   -5349.6926   -5361.8476            0    9707.7933    17.673917    22.581514    18.968282    7570.3135    9747.3031    9649.3877    9726.6891   -124.44441    45.832193    144.69306   -4277.9012 
10396000    6.2924933   -5363.1361   -5350.5504   -5363.1361            0    9611.5601    17.710287    22.541323    18.979954    7577.0497     9640.202    9676.3962    9518.0821    193.35586    126.71021    156.71583   -4288.4394 
10397000    5.9164503    -5363.152   -5351.3184    -5363.152            0    9608.6348    17.703426    22.529699    18.995652    7576.4705     9497.153    9735.2647    9593.4865   -52.851084   -46.352113   -35.185781   -4289.6118 
10398000    6.1449999   -5361.8546   -5349.5638   -5361.8546            0    9725.2018    17.703078    22.568643    18.946624    7569.8291    9617.0745    9754.2987    9804.2323   -32.401992   -28.679194   -72.488239   -4275.9191 
10399000    6.4258372   -5362.3997   -5349.5473   -5362.3997            0    9592.4547    17.701467    22.571067    18.963834    7576.8294    9451.1363    9652.4759    9673.7518    177.45163    97.270261   -107.00996   -4289.5783 
10400000    5.9249582   -5362.5964   -5350.7457   -5362.5964            0    9617.4341    17.694653    22.597809    18.940735      7573.65    9563.6708    9612.2686    9676.3628   -5.0093451   -47.631723    62.968183   -4288.4625 
10401000    6.4152191   -5361.5166   -5348.6853   -5361.5166            0     9633.219    17.640454    22.610159    18.987014    7573.0366    9685.5814    9529.2712    9684.8045   -126.33103    77.740429   -42.635663   -4284.7447 
10402000    6.2979633   -5362.7675   -5350.1708   -5362.7675            0    9504.1091    17.710288    22.526478    18.990566    7576.2942      9066.62    9857.7746    9587.9327     279.4528  -0.01707253    275.94707   -4300.0382 
10403000    6.1444633   -5361.7241   -5349.4344   -5361.7241            0    9674.8533    17.725416    22.546498    18.947157    7572.1565     9609.921    9568.7941    9845.8447    -48.61321   -253.98303    101.64972   -4281.0197 
10404000    6.1742487    -5362.254   -5349.9047    -5362.254            0    9595.4806    17.639498    22.626535    18.976427    7573.8849    9764.0396    9472.4881    9549.9143   -132.92875   -199.62182   -223.96032   -4290.0134 
10405000    6.0141169   -5362.0807   -5350.0518   -5362.0807            0    9609.9557    17.674684    22.541121    19.009738    7573.6163     9487.038    9818.0666    9524.7625    5.1409865   -15.668274    41.252817   -4288.5992 
10406000    5.8304838   -5362.8234   -5351.1617   -5362.8234            0    9606.3385    17.674141    22.596799    18.966805    7574.9438    9542.4655    9767.2019     9509.348   -16.295611    324.16269   -119.46701   -4289.9227 
10407000    6.1334038   -5362.3713   -5350.1037   -5362.3713            0    9539.7056    17.673973    22.580916    18.980407    7574.9758    9512.9252    9583.2579    9522.9338    116.73628   -156.68191   -223.59686   -4296.2214 
10408000    5.9662089   -5362.4051   -5350.4719   -5362.4051            0    9602.3556    17.679052    22.629384    18.933183    7574.5237    9646.8961    9453.7049    9706.4659   -63.156671    168.04158    -312.4432   -4289.7318 
10409000    6.2436948   -5363.8006   -5351.3125   -5363.8006            0    9598.0095    17.662269    22.611309    18.975756    7578.2915    9752.3765    9340.0842    9701.5677    124.95205    74.352555    21.043881    -4290.525 
10410000    6.4171758   -5362.3532   -5349.5181   -5362.3532            0    9624.9697    17.721041    22.578373    18.930559    7574.3491    9429.8457    9653.9936    9791.0698    108.61152   -195.36018    204.95929   -4286.3043 
10411000    6.1883357   -5362.8868   -5350.5094   -5362.8868            0    9592.9539    17.702999    22.565391     18.96048    7574.2398    9584.2168    9428.1289    9766.5159   -28.912269   -211.29705    303.42076   -4290.8475 
10412000    5.8862199   -5361.6908   -5349.9176   -5361.6908            0    9619.7596    17.704691    22.597959    18.931878    7574.4529    9557.8126    9485.7275    9815.7388   -164.68952   -97.511277    -318.4837   -4287.2648 
10413000    6.0566421   -5362.4134   -5350.2994   -5362.4134            0    9648.8608    17.723048    22.542759     18.95697      7573.81    9352.5122    9718.1899    9875.8804    208.10284   -239.57368    196.49707   -4284.5224 
10414000     5.884945   -5362.1956    -5350.425   -5362.1956            0    9638.5323    17.677764    22.601772    18.955706    7573.7295    9770.0218    9524.7539    9620.8212    40.152714    -267.4862   -142.09548   -4285.8002 
10415000    6.1550972   -5361.8664   -5349.5554   -5361.8664            0    9657.2907    17.692464    22.571065    18.959964    7571.4293    9543.0645    9663.0229    9765.7847   -82.887319   -197.94686    9.1144951   -4283.1826 
10416000    6.5433732   -5361.5734   -5348.4859   -5361.5734            0    9674.9586    17.696634    22.563354    18.968749    7574.1347    9861.8804    9607.4466    9555.5489   -59.595787    54.238812   -205.14083   -4279.7804 
10417000    6.2005146   -5361.8977   -5349.4959   -5361.8977            0    9661.6071     17.66921    22.580474    18.973018    7569.8382    9573.4494    9646.3681    9765.0039    165.67173   -230.54817    181.53178   -4282.8707 
10418000    6.4424383   -5362.0439   -5349.1583   -5362.0439            0    9691.8259    17.697936    22.588394    18.943983    7573.1973    9563.8608     9621.818    9889.7989   -141.68881   -16.391198    174.92478   -4278.7221 
10419000     6.249469   -5361.8651   -5349.3654   -5361.8651            0    9630.0998    17.654809    22.581212    19.002589    7575.7048    10163.959    9445.9953    9280.3453   -124.18011   -85.909355   -218.85523   -4285.3946 
10420000    6.0566821   -5362.1309   -5350.0167   -5362.1309            0    9562.2236    17.711131     22.56146    18.958438    7575.5827    9564.5863    9494.4518    9627.6328   -152.49142   -147.11746    330.79054   -4293.5622 
10421000    6.4233129   -5362.0052   -5349.1578   -5362.0052            0      9667.94    17.653661    22.583442    18.988946    7570.5212    9739.8924    9770.2515    9493.6761    458.61158    63.777473   -27.877957   -4281.7371 
10422000    6.0383915   -5362.7393   -5350.6618   -5362.7393            0    9614.0511    17.708244    22.531592    18.984945    7574.8971     9591.072    9664.4796    9586.6016    106.06347    -37.49647   -22.545457   -4288.5773 
10423000    6.0307219   -5362.7922     -5350.73   -5362.7922            0    9634.2293    17.671197    22.590705     18.97164    7573.5696    9604.3613    9754.3799    9543.9466   -306.19364     53.62952   -295.03852   -4286.6029 
10424000    6.4103461   -5363.7142   -5350.8927   -5363.7142            0     9522.708    17.693222    22.559884    18.985711    7578.2799    9491.6884    9537.1815    9539.2542      150.891    79.719679   -58.751086   -4298.4293 
10425000    6.0984204   -5361.5831   -5349.3855   -5361.5831            0    9607.0476    17.679159    22.584444    18.959469    7570.0228    9577.9141    9632.1594    9611.0692     141.9654   -104.25455    5.0721984   -4288.7577 
10426000    6.3671406   -5362.9165   -5350.1815   -5362.9165            0    9580.9142    17.716607     22.53912    18.973315    7576.3621    9404.3549    9712.5012    9625.8866   -47.141716   -88.586642   -332.20368    -4291.553 
10427000    6.3383679   -5362.0362   -5349.3587   -5362.0362            0    9597.6367    17.659146    22.607696     18.96495    7571.4263    9660.6963      9414.26    9717.9539    251.74961   -2.5580414   -4.3946284   -4289.5734 
10428000    6.0757036   -5361.5262   -5349.3741   -5361.5262            0    9599.3223    17.683774    22.590709    18.954415    7572.0802    9594.7342    9717.1047    9486.1281   -70.918415    109.99301     124.4609   -4289.3111 
10429000     6.313343    -5363.277   -5350.6495    -5363.277            0    9555.8099    17.695791    22.586406    18.961208    7578.4973    9682.5104    9477.1908    9507.7285    267.64226   -191.07716   -39.415866   -4294.4973 
10430000    6.1071036   -5361.8435   -5349.6285   -5361.8435            0    9645.3066    17.680811    22.629039    18.921009    7570.2908    9592.0937    9502.8903    9840.9358    161.85016    80.332438   -193.28861   -4284.7392 
10431000     6.271046   -5362.9416   -5350.3988   -5362.9416            0    9600.0645    17.717029    22.537781    18.968995    7574.3676    9447.9108    9681.6032    9670.6795    387.96539   -67.281489    14.615602   -4289.9336 
10432000    6.3135673   -5362.5468   -5349.9189   -5362.5468            0    9597.1839    17.665503    22.568895    18.994032    7572.7475     9733.399    9638.0539    9420.0988   -169.52083   -56.413328    283.21801   -4289.9987 
10433000    6.0069723   -5362.2039   -5350.1892   -5362.2039            0    9646.2438    17.702892    22.551321    18.970076     7573.302    9760.8454     9602.207    9575.6792    22.956558    49.403978   -349.63704   -4284.7727 
10434000    5.8989528   -5362.3071   -5350.5085   -5362.3071            0    9575.7303    17.662781    22.564794    19.005031    7574.5887    9475.7585    9749.3059    9502.1267   -116.74686   -195.06343     130.3802   -4292.7005 
10435000    6.1049509   -5361.8281   -5349.6174   -5361.8281            0    9625.3466    17.700805    22.533307    18.991533    7574.9185    9474.3181    9692.6885    9709.0332    -265.5734    144.38508   -213.97155   -4286.2821 
10436000    6.1601064   -5362.3397   -5350.0187   -5362.3397            0    9560.8011    17.678005    22.599981    18.966456    7577.5275    9750.1797    9424.0853    9508.1384    100.05618   -19.991327   -103.14406   -4293.4501 
10437000    6.0026103   -5362.6087   -5350.6027   -5362.6087            0     9538.704    17.698384    22.522659      19.0056     7575.911    9574.6621    9686.3346    9355.1152   -262.45519    12.305194   -120.03867    -4296.701 
10438000    6.1189831   -5361.4568    -5349.218   -5361.4568            0     9660.469    17.653003    22.668859     18.92626    7573.7866    9759.5992    9448.8058    9773.0021    48.637765   -17.622278   -188.74501   -4282.1622 
10439000    5.7245328   -5362.2752   -5350.8254   -5362.2752            0    9607.7117    17.704467    22.514464    19.004646     7575.377    9645.9808    9701.5753     9475.579   -39.310328   -132.44034    118.19705   -4289.3741 
10440000    6.5245136   -5361.7688    -5348.719   -5361.7688            0    9567.0743     17.67797    22.604872    18.949664    7572.4423    9391.2951    9645.2924    9664.6352    222.02485    145.93455    297.06515   -4292.1667 
10441000    5.9185289   -5361.7888   -5349.9511   -5361.7888            0     9640.798    17.685711    22.523995    19.019345    7576.4107    9737.6772      9653.35    9531.3668   -124.02838    22.908805   -126.24606    -4284.699 
10442000    6.0459134   -5361.0299   -5348.9373   -5361.0299            0    9657.4051     17.70536    22.533605    18.974651    7570.2326    9494.4877    9946.9213    9530.8062   -54.826587    34.059028    79.152176   -4282.7204 
10443000    6.4670993   -5363.3617   -5350.4267   -5363.3617            0    9535.0865    17.698498    22.549919    18.982464    7575.8956    9546.1531    9591.8813    9467.2252    277.89658    19.766537    19.017299   -4296.9267 
10444000    6.4350744   -5362.2371   -5349.3662   -5362.2371            0    9620.6651    17.668681    22.595321    18.965853    7571.7284     9649.585    9589.0122     9623.398    15.566628   -42.586253   -15.368558   -4286.9957 
10445000    6.2170833   -5362.1049   -5349.6699   -5362.1049            0    9588.3717    17.670871    22.589155    18.969512    7572.0613    9608.5446    9615.8799    9540.6906   -159.14972   -150.56129    203.62047   -4290.8189 
10446000    6.0415856   -5362.9335   -5350.8495   -5362.9335            0     9608.258    17.684277    22.615779    18.942373    7575.8824    9746.9721    9393.0226    9684.7794   -231.96031    50.887255   -63.531966    -4289.267 
10447000    5.9765737   -5361.5725   -5349.6186   -5361.5725            0    9660.9059    17.701292    22.580303    18.941931    7571.0997    9508.0882    9680.2191    9794.4104   -241.16596   -61.422858    209.38758    -4282.893 
10448000    6.2092975    -5361.656   -5349.2366    -5361.656            0    9720.8379    17.690948    22.564952    18.960639    7568.9996    9610.9577    9840.8215    9710.7344    81.065747   -226.86535   -553.96721   -4276.1913 
10449000    6.1275087   -5361.9231   -5349.6673   -5361.9231            0    9599.1818    17.656684    22.596144    18.978334    7571.8423    9711.0543    9592.3974    9494.0939    350.51122   -28.184135    91.789464   -4289.6532 
10450000    5.9863579    -5361.848   -5349.8746    -5361.848            0    9658.1002    17.707103    22.562442    18.951146    7571.2762    9446.2323    9704.0512    9824.0171   -148.40998   -198.83756   -127.86839   -4283.4339 
10451000     6.042095   -5362.3853   -5350.3004   -5362.3853            0    9554.6194    17.655403    22.629249    18.961078    7575.4915    9688.8461     9556.528     9418.484    -104.0341    96.369085    77.965796   -4294.6987 
10452000    6.1498721   -5362.2584   -5349.9579   -5362.2584            0    9614.5255    17.675875     22.60398    18.951696    7572.0578    9645.1613    9484.1993    9714.2159    8.4290257   -185.78913    86.600594   -4288.2191 
10453000    5.8580657   -5362.2725   -5350.5556   -5362.2725            0    9617.8559    17.693671     22.58917    18.944435    7571.8128    9628.4438    9545.3372    9679.7866    4.9187363   -50.994179   -565.68511   -4288.4835 
10454000    6.0470874   -5363.3941   -5351.2992   -5363.3941            0    9552.5068    17.698056    22.609664     18.93522    7576.8733    9490.1623    9388.2983    9779.0598    66.145734    130.27578    159.80755   -4295.7384 
10455000    6.0452461   -5363.0947   -5351.0035   -5363.0947            0    9601.7304    17.679765    22.577067    18.977265    7574.9129    9497.2716    9797.6354    9510.2841   -308.95161    172.76786   -164.15641   -4290.2779 
10456000    6.3041778   -5362.9656   -5350.3565   -5362.9656            0     9669.783    17.702368    22.590967    18.932355    7571.3063    9599.4266    9641.7221    9768.2004    38.034303    130.81823    234.35358   -4282.6216 
10457000    6.0342211   -5362.0274   -5349.9582   -5362.0274            0    9655.8222    17.676455    22.583253    18.964821    7570.6021    9766.2647    9746.9143    9454.2876   -100.08967   -171.83491   -65.556802   -4283.8641 
10458000    6.4042135   -5362.1397   -5349.3305   -5362.1397            0    9562.9287    17.687256    22.601771    18.946987    7574.3101    9608.7046    9617.7628    9462.3186     200.6691    97.205642   -124.72945   -4292.9755 
10459000    6.2589484   -5362.5231   -5350.0044   -5362.5231            0    9540.9995    17.668657     22.56831    18.995218    7574.3758    9558.9213    9631.4718    9432.6054   -48.345742    252.81291   -93.168646   -4296.0627 
10460000    6.3386283   -5363.2131   -5350.5351   -5363.2131            0    9523.5643    17.687083    22.592828    18.964086    7578.0721    9538.4066    9493.3581    9538.9284    25.720505   -85.428989    378.41839   -4298.0059 
10461000    6.2618885   -5362.0298   -5349.5053   -5362.0298            0    9641.7512    17.700948    22.539454    18.987894    7575.5942    9583.1581    9645.5305    9696.5652    231.67674   -244.54672    133.18933   -4284.2627 
10462000    6.0061547   -5362.0622   -5350.0491   -5362.0622            0    9628.3685    17.684418    22.559219     18.99064     7576.252    9387.8566    9808.2302    9689.0187     89.34159     89.06546     34.07729   -4286.1927 
10463000    6.1370743   -5362.4895   -5350.2146   -5362.4895            0    9691.6104    17.712794    22.522203    18.991373      7576.25    9647.2894    9877.6637     9549.878    26.428116    5.6087218    484.59564   -4279.3708 
10464000    5.9933032   -5362.0085   -5350.0212   -5362.0085            0    9622.6093    17.708857    22.544297    18.971538    7574.0781    9356.5419    9566.6007    9944.6855    127.55437   -180.77964    176.00714   -4287.1062 
10465000    5.7777772    -5361.774   -5350.2178    -5361.774            0    9701.5024     17.66159    22.606138    18.961613    7570.6202    9901.3623      9557.31    9645.8349    -152.0189   -122.65977     137.9305   -4279.0775 
10466000    6.0439598   -5362.3317    -5350.243   -5362.3317            0    9665.1181    17.695643    22.572825    18.960269    7573.5021    9877.0046    9632.9276    9485.4222   -230.20968    163.83469   -1.1527626   -4282.7137 
10467000    6.0026149   -5363.0022   -5350.9962   -5363.0022            0    9659.1927    17.685842    22.549981    18.992694    7574.5791    9752.2767    9687.9111    9537.3902    16.444506   -220.78892   -53.283115   -4283.9697 
10468000    5.9635677   -5361.3793   -5349.4515   -5361.3793            0    9536.9556    17.667999    22.642573    18.932434    7573.9005    9502.5207    9426.1671     9682.179    -3.843681    74.029271    41.312157   -4296.0225 
10469000    5.9464944   -5361.9948    -5350.101   -5361.9948            0     9630.113    17.680047    22.577452    18.975693    7574.5352     9747.131    9699.7745    9443.4336   -168.76333   -5.7139885    183.82104    -4286.293 
10470000    5.8371081   -5362.4945   -5350.8196   -5362.4945            0    9560.8323     17.65297    22.671403    18.921099    7572.5568    9606.5026    9314.5226    9761.4716   -226.03616    49.209538   -275.90797   -4294.9406 
10471000    6.0664027   -5362.2808   -5350.1472   -5362.2808            0    9551.8915    17.630097    22.664991    18.955634    7574.4062    9857.3294    9277.7477    9520.5973    36.099056     94.86032   -37.970518   -4294.9981 
10472000    5.7045909   -5362.1008   -5350.6909   -5362.1008            0    9601.6599    17.675553    22.634596    18.922419    7570.4626    9553.0679    9466.5734    9785.3385    158.40603   -62.315246    235.04486   -4290.5963 
10473000     5.792305   -5362.0093    -5350.424   -5362.0093            0    9554.5256    17.676791    22.583795     18.97307    7574.2209     9584.374    9384.1771    9695.0259    197.37721   -89.199965   -72.117799   -4295.0097 
10474000    6.1735134   -5362.8278     -5350.48   -5362.8278            0    9497.8597    17.663409    22.621794    18.958293    7575.3168    9321.3275     9565.948    9606.3036    168.11253   -64.316625    14.765064   -4301.1733 
10475000    6.1145904   -5362.6708   -5350.4409   -5362.6708            0     9566.886    17.697803    22.512823    19.016375    7576.6467    9637.2752    9735.0586    9328.3241   -48.049505   -61.103539    -17.73228   -4293.3227 
10476000    6.2262911   -5362.4454    -5349.992   -5362.4454            0    9601.3622    17.681829     22.62831    18.924654    7571.9416    9484.0513    9467.7433    9852.2919    -73.98384    72.296147   -282.28547   -4289.7232 
10477000    6.6851147   -5361.8654   -5348.4944   -5361.8654            0    9627.1855    17.695225    22.505476    19.018448    7573.8967    9547.1355    9952.2128    9382.2081    57.486244    116.95206    388.00232   -4285.0994 
10478000     6.351963   -5362.7063   -5350.0016   -5362.7063            0    9563.8068    17.665887    22.587932    18.992098    7578.5283    9692.0564    9394.1988    9605.1654    140.55784   -110.88677     72.30365   -4292.9613 
10479000    6.3920945   -5362.7034   -5349.9185   -5362.7034            0    9563.4939    17.707924     22.56346    18.963054    7576.7268    9353.3368    9708.7042    9628.4408    180.88551    157.71006    75.703094    -4293.164 
10480000     6.423908   -5361.5281   -5348.6795   -5361.5281            0     9641.218    17.721927    22.530516    18.964809     7572.348     9458.404    9822.7794    9642.4706   -179.62213   -90.160806    32.086356   -4283.9523 
10481000    6.4655519   -5362.4393   -5349.5073   -5362.4393            0    9643.1227    17.739571    22.494271    18.984553    7575.5721    9528.1731    9789.4449    9611.7502    142.88038    9.1796821    29.070861   -4284.1164 
10482000    6.1688225   -5362.6193   -5350.2809   -5362.6193            0    9510.6049    17.666337    22.617689    18.957023    7574.6904    9940.7894    9290.7462    9300.2792   -200.00043    -81.05527   -213.68086    -4299.653 
10483000    6.0015083   -5362.3669   -5350.3631   -5362.3669            0    9663.0048    17.731574    22.520381    18.966168    7573.6047    9535.7872    9746.3965    9706.8307    93.395724    -175.9474    157.19239   -4283.0528 
10484000    6.4508509   -5362.0803   -5349.1778   -5362.0803            0    9515.2275    17.668786    22.617785    18.953662    7574.4296    9562.6653    9412.8722    9570.1449    127.75137    70.683251   -134.00802   -4298.0755 
10485000    5.9544669   -5362.6369   -5350.7272   -5362.6369            0    9678.1693    17.675289    22.551069    19.001742    7574.0308    9554.4456    9895.4702    9584.5922    409.60861    283.28733    117.43238   -4281.6817 
10486000    5.9041281   -5362.6133   -5350.8044   -5362.6133            0    9642.5526    17.666427    22.597223    18.977074    7575.8791    9578.8036    9647.7255    9701.1288    5.4136653   -172.62942   -135.00482   -4285.4332 
10487000    5.8531711   -5361.3614   -5349.6543   -5361.3614            0    9604.6405    17.669528    22.602317    18.954998    7570.1006    9389.8128    9604.8858     9819.223   -31.641978   -12.762408   -272.99218   -4289.2814 
10488000    6.1945391   -5362.5377   -5350.1478   -5362.5377            0    9581.5574    17.677057    22.634643    18.935679    7576.4278    9629.3695    9402.4938     9712.809    27.101739   -13.456044   -97.021382   -4291.4391 
10489000    6.3233735   -5361.7648   -5349.1173   -5361.7648            0    9573.7996    17.691921    22.561322    18.975201     7574.011    9553.4193    9592.2634    9575.7161    94.672681   -69.473366    49.573029   -4291.6032 
10490000    6.4327158   -5363.1953   -5350.3291   -5363.1953            0    9562.8054     17.68946    22.581986    18.975251    7579.9133     9554.748    9506.1902    9627.4781   -116.79499   -8.0652207   -78.115315   -4293.2063 
10491000    6.0656122   -5362.3842   -5350.2522   -5362.3842            0    9698.6049    17.715171    22.571174       18.936    7571.6009    9424.1905    9772.3036    9899.3205   -34.373769    104.63741    45.985861   -4279.2932 
10492000    6.4813066   -5362.9826   -5350.0192   -5362.9826            0    9560.1147    17.698589    22.595866    18.933676    7571.8597    9468.2117    9442.4824    9769.6499    -158.1606   -1.4080325   -34.094341   -4294.3167 
10493000    6.2832751   -5361.8228   -5349.2554   -5361.8228            0    9751.0559    17.671859    22.573024    18.982758    7572.3609    9835.0552    9739.3076    9678.8051    13.052344    23.385383    220.66126   -4272.3964 
10494000    6.1035025   -5360.9533   -5348.7456   -5360.9533            0    9635.3726    17.671567    22.589566    18.965491     7570.892    9725.2832    9661.2004    9519.6342   -61.730034     114.8277   -234.43526   -4284.8685 
10495000     6.472184   -5363.1942    -5350.249   -5363.1942            0    9559.6529    17.702228    22.570994    18.968957    7579.1776    9503.4226    9615.2819    9560.2543   -3.0195428    180.04297    -197.3178   -4293.5773 
10496000    6.1424337   -5361.3591   -5349.0735   -5361.3591            0    9658.1098    17.664274    22.598951    18.959519    7568.5276    9730.3605    9576.4176    9667.5514    105.35777    51.961069    236.27181   -4283.0189 
10497000    5.7740913   -5361.8123   -5350.2634   -5361.8123            0    9575.9999    17.669729    22.595398    18.973954    7575.4377     9682.596    9280.2395    9765.1641    164.20779    67.187194     203.5509    -4292.307 
10498000    6.2800496    -5361.865   -5349.3042    -5361.865            0    9602.3581    17.688019    22.568574    18.966059    7571.1251    9456.7308    9776.4751    9573.8684   -87.740516     181.0115   -202.12194   -4289.0397 
10499000     5.708742   -5361.8897   -5350.4715   -5361.8897            0    9520.5623    17.685381    22.592352    18.954787    7573.4673    9493.6116    9552.3027    9515.7727     62.16816    11.218911   -217.57603   -4298.9135 
10500000    6.4269381   -5362.0065   -5349.1519   -5362.0065            0     9635.184    17.697974    22.504681    19.019477    7575.2153    9718.9972    9670.2797    9516.2751    37.009098   0.77013273     42.88303   -4284.6881 
Loop time of 458.916 on 64 procs for 250000 steps with 1008 atoms

Performance: 94.135 ns/day, 0.255 hours/ns, 544.762 timesteps/s
193.5% CPU use with 32 MPI tasks x 2 OpenMP threads

MPI task timing breakdown:
Section |  min time  |  avg time  |  max time  |%varavg| %total
---------------------------------------------------------------
Pair    | 34.28      | 39.826     | 46.614     |  46.1 |  8.68
Bond    | 0.84839    | 1.0784     | 1.5069     |  14.7 |  0.23
Kspace  | 223.75     | 230.43     | 240.34     |  25.1 | 50.21
Neigh   | 0.10511    | 0.1109     | 0.11759    |   1.1 |  0.02
Comm    | 71.799     | 75.576     | 79.103     |  24.1 | 16.47
Output  | 0.48082    | 0.48106    | 0.48249    |   0.0 |  0.10
Modify  | 86.801     | 90.925     | 94.321     |  18.2 | 19.81
Other   |            | 20.48      |            |       |  4.46

Nlocal:        31.5000 ave          37 max          27 min
Histogram: 1 0 4 6 6 5 5 3 1 1
Nghost:        3004.91 ave        3019 max        2993 min
Histogram: 3 2 5 1 6 6 6 0 1 2
Neighs:        11023.0 ave       12945 max        9452 min
Histogram: 1 2 5 6 5 7 2 2 1 1

Total # of neighbors = 352737
Ave neighs/atom = 349.93750
Ave special neighs/atom = 2.0000000
Neighbor list builds = 250
Dangerous builds = 0

unfix		3
unfix		2
unfix		1

write_data	data.final.${pid}
write_data	data.final.1
System init for write_data ...
PPPM initialization ...
  extracting TIP4P info from pair style
  using 12-bit tables for long-range coulomb (../kspace.cpp:340)
  G vector (1/distance) = 0.38049194
  grid = 24 27 32
  stencil order = 5
  estimated absolute RMS force accuracy = 0.0023430837
  estimated relative force accuracy = 7.0561269e-06
  using double precision FFTW3
  3d grid and FFT values/proc = 5355 672
Last active /omp style is kspace_style pppm/tip4p/omp
WARNING: Not all mixed pair coeffs generated from mixing. Use write_data with 'pair ij' option to store all pair coeffs. (../write_data.cpp:312)

write_restart   restart.lmp.${pid}
write_restart   restart.lmp.1
System init for write_restart ...
PPPM initialization ...
  extracting TIP4P info from pair style
  using 12-bit tables for long-range coulomb (../kspace.cpp:340)
  G vector (1/distance) = 0.38049194
  grid = 24 27 32
  stencil order = 5
  estimated absolute RMS force accuracy = 0.0023430837
  estimated relative force accuracy = 7.0561269e-06
  using double precision FFTW3
  3d grid and FFT values/proc = 5355 672
Last active /omp style is kspace_style pppm/tip4p/omp
Total wall time: 0:07:39
