#include		in.partitions
include		in.temp
variable        temperature equal 52.71
variable	tempDamp equal 100.0
include		in.pressure
variable        pressure equal -331.2
variable        pressureDamp equal 1000.0 # This is 1 ps
include		in.seed
variable        seed equal 745823

units		real
atom_style	full

read_restart	restart.lmp.${pid}
read_restart	restart.lmp.1
Reading restart file ...
  restart file = 30 Jul 2021, LAMMPS = 30 Jul 2021
  restoring atom style full from restart
  orthogonal box = (-0.00092480750 0.013161266 -0.10974478) to (20.000926 19.986840 20.809743)
  4 by 4 by 4 MPI processor grid
  restoring pair style lj/cut/tip4p/long/omp from restart
  restoring bond style harmonic/omp from restart
  restoring angle style harmonic/omp from restart
  972 atoms
  648 bonds
  324 angles
Finding 1-2 1-3 1-4 neighbors ...
  special bond factors lj:    0        0        0       
  special bond factors coul:  0        0        0       
     2 = max # of 1-2 neighbors
     1 = max # of 1-3 neighbors
     1 = max # of 1-4 neighbors
     2 = max # of special neighbors
  special bonds CPU = 0.005 seconds
  read_restart CPU = 0.014 seconds
include 	in.setup
variable	out_freq equal 1000
variable	out_freq2 equal 10000
variable	out_freq3 equal 1000

timestep	2.0

neigh_modify    delay 7 every 1

include		in.tip4p
# This is TIP4P/Ice

# create groups ###
group ox type 2
324 atoms in group ox
group hy type 1
648 atoms in group hy

# set charges - beside manually ###
set group ox charge -1.1794
Setting atom values ...
  324 settings made for charge
set group hy charge 0.5897
Setting atom values ...
  648 settings made for charge

# ### TIP3P Potential Parameters ###
pair_style lj/cut/tip4p/long/omp 2 1 1 1 0.1577 8.5
pair_coeff 1 1*2 0.000 0.000
pair_coeff 2 2 0.21084 3.1668
bond_style  harmonic
bond_coeff  1 450 0.9572
angle_style harmonic
angle_coeff 1 55 104.52
kspace_style pppm/tip4p/omp 1.0e-5
pair_modify tail yes

thermo          ${out_freq}
thermo          1000
thermo_style    custom step temp pe etotal epair emol press lx ly lz vol pxx pyy pzz pxy pxz pyz enthalpy

restart 	${out_freq3} restart.lmp.${pid} restart2.lmp.${pid}
restart 	1000 restart.lmp.${pid} restart2.lmp.${pid}
restart 	1000 restart.lmp.1 restart2.lmp.${pid}
restart 	1000 restart.lmp.1 restart2.lmp.1


include         in.dump
dump            myDump all atom ${out_freq2} dump.water.${pid}
dump            myDump all atom 10000 dump.water.${pid}
dump            myDump all atom 10000 dump.water.1
dump            myDump2 all dcd ${out_freq2} dump.dcd
dump            myDump2 all dcd 10000 dump.dcd
dump_modify     myDump append yes
dump_modify     myDump2 append yes


variable natoms 	equal  "count(all)"                        # NUMBER ATOMS
variable H      	equal  "enthalpy/v_natoms"                 # ENTHALPY-per-atom
variable Vol      	equal  "vol/v_natoms"                 # volume-per-atom
fix AVG all 		ave/time ${out_freq} 1 ${out_freq} v_Vol v_H file vol_enthalpy.dat
fix AVG all 		ave/time 1000 1 ${out_freq} v_Vol v_H file vol_enthalpy.dat
fix AVG all 		ave/time 1000 1 1000 v_Vol v_H file vol_enthalpy.dat


timer           timeout 02:55:00 every 1000
New timer settings: style=normal  mode=nosync  timeout=02:55:00

fix 		1 all shake 1e-6 200 0 b 1 a 1
       0 = # of size 2 clusters
       0 = # of size 3 clusters
       0 = # of size 4 clusters
     324 = # of frozen angles
  find clusters CPU = 0.001 seconds
fix             2 all nph aniso ${pressure} ${pressure} ${pressureDamp}
fix             2 all nph aniso -331.2 ${pressure} ${pressureDamp}
fix             2 all nph aniso -331.2 -331.2 ${pressureDamp}
fix             2 all nph aniso -331.2 -331.2 1000
fix             3 all temp/csvr ${temperature} ${temperature} ${tempDamp} ${seed}
fix             3 all temp/csvr 52.71 ${temperature} ${tempDamp} ${seed}
fix             3 all temp/csvr 52.71 52.71 ${tempDamp} ${seed}
fix             3 all temp/csvr 52.71 52.71 100 ${seed}
fix             3 all temp/csvr 52.71 52.71 100 745823


run             250000
PPPM initialization ...
  extracting TIP4P info from pair style
  using 12-bit tables for long-range coulomb (../kspace.cpp:340)
  G vector (1/distance) = 0.37227844
  grid = 24 24 25
  stencil order = 5
  estimated absolute RMS force accuracy = 0.0034229314
  estimated relative force accuracy = 1.0308056e-05
  using double precision FFTW3
  3d grid and FFT values/proc = 2366 288
Last active /omp style is kspace_style pppm/tip4p/omp
Neighbor list info ...
  update every 1 steps, delay 7 steps, check yes
  max neighbors/atom: 2000, page size: 100000
  master list distance cutoff = 10.8154
  ghost atom cutoff = 10.8154
  binsize = 5.4077, bins = 4 4 4
  1 neighbor lists, perpetual/occasional/extra = 1 0 0
  (1) pair lj/cut/tip4p/long/omp, perpetual
      attributes: half, newton on, omp
      pair build: half/bin/newton/omp
      stencil: half/bin/3d
      bin: standard
Per MPI rank memory allocation (min/avg/max) = 9.227 | 9.231 | 9.238 Mbytes
Step Temp PotEng TotEng E_pair E_mol Press Lx Ly Lz Volume Pxx Pyy Pzz Pxy Pxz Pyz Enthalpy 
 9500000    59.787192   -5138.4319   -5023.1272   -5138.4319            0   -96.820841    20.001851    19.973678    20.919488    8357.5556   -495.37072    288.38511   -83.476906    112.13811    308.53236    20.132715   -5034.9284 
 9501000    53.673489   -5151.5993   -5048.0855   -5151.5993            0   -485.18483    20.002695    19.956617    21.023582    8392.3221   -531.48327   -387.78336   -536.28785   -73.286301   -89.016931   -459.34502   -5107.4689 
 9502000    53.533266   -5149.2292   -5045.9858   -5149.2292            0   -23.393373    20.049378    19.972659    20.862723    8354.2564   -1022.8746      725.894    226.80051    189.71847    53.867881    148.84088   -5048.8361 
 9503000    54.153003    -5152.893   -5048.4543    -5152.893            0   -371.79214      20.0747    19.946921    20.930698     8381.247   -1139.1565     429.7763   -405.99628    96.720684    438.68552    799.22923   -5093.8992 
 9504000    51.338957   -5152.4178   -5053.4063   -5152.4178            0   -43.806884    19.982687    19.975557     20.97432    8372.2206    385.48526   -188.01213   -328.89379   -347.22759    177.67566      429.067   -5058.7551 
 9505000    51.914646    -5147.559   -5047.4372    -5147.559            0    487.67052    19.900976     19.97045    20.988275    8341.4005    761.20853    485.41588    216.38716   -204.29168    1031.5214   -631.78581   -4988.1117 
 9506000    52.429995    -5142.926   -5041.8103    -5142.926            0   -370.35797    19.980922    20.009267    20.932584    8368.9228   -547.69304   -100.54562   -462.83525   -323.99214    212.48654    102.36963   -5087.0133 
 9507000     53.20246   -5149.5263   -5046.9209   -5149.5263            0   -1027.7304    20.123185    19.910882      21.0357    8428.3817   -1980.2534   -335.70756   -767.23016   -59.275016   -643.84257    348.76374   -5173.2488 
 9508000    53.504053   -5146.9776   -5043.7905   -5146.9776            0   -404.14043     20.01691    20.039013    20.955829    8405.7837    332.21557   -1172.9683   -371.66856   -271.40524    113.36635    235.46362    -5093.334 
 9509000    57.310654   -5150.7738   -5040.2454   -5150.7738            0    2.9537438    20.023355    19.967369    20.963786     8381.609   -634.55987    542.27184    101.14927   -274.08667    241.03906   -81.935804   -5039.8843 
 9510000    53.485459   -5146.5977   -5043.4465   -5146.5977            0    186.18055    19.921208    20.012295    21.024706    8381.9004     146.2889    794.30842   -382.05567   -74.908577    2.8513886   -127.96077   -5020.6876 
 9511000    52.433693   -5149.2896   -5048.1668   -5149.2896            0   -184.49144    20.075228    19.941064    20.897168     8365.584   -751.23841    339.77249    -142.0084   -244.65964    456.36895    183.10278   -5070.6754 
 9512000    53.273253   -5140.9786   -5038.2366   -5140.9786            0   -633.33993      20.0374    19.992206    21.007439    8415.4085   -1178.4406   -298.94254   -422.63662   -38.187225   -110.59683    49.347652   -5115.9665 
 9513000    55.826952   -5147.2027   -5039.5358   -5147.2027            0   -415.96884     20.01136    19.913009    21.025573    8378.4046   -891.27306    110.76765   -467.40111   -351.56254   -109.54832    258.36836   -5090.3632 
 9514000    51.799634   -5149.6307   -5049.7308   -5149.6307            0   -375.78706    20.135253     19.84813    21.027434    8403.5534   -751.38716    296.99918   -672.97319   -37.826021   -520.78113    402.31381   -5095.7862 
 9515000    51.128208    -5147.964    -5049.359    -5147.964            0   -112.20972    20.049281    20.001111    20.904966    8383.0563    -890.0622    320.29398    233.13906   -289.57885     238.8632   -219.34862   -5063.0775 
 9516000    52.462899   -5147.2653   -5046.0862   -5147.2653            0   -713.04813    19.976697    20.106884    20.933008    8408.1433    101.83023     -1396.27   -844.70462   -392.28884    439.64018    190.86335   -5133.5231 
 9517000    51.843512   -5148.0077   -5048.0232   -5148.0077            0   -1299.6626    19.972318    20.026368    21.041019    8415.8395   -430.77189   -1587.3605   -1880.8554   -47.124108   -42.444663   -777.62506    -5207.539 
 9518000    52.698561   -5155.1004   -5053.4668   -5155.1004            0   -518.03636    20.014848     20.01568     20.95745    8395.7806    85.523503    -1458.922   -180.71059   -152.49217   -155.77166   -155.97301   -5116.8971 
 9519000    52.866386   -5150.0393    -5048.082   -5150.0393            0    534.51955    19.990684    19.923157     20.97293    8353.0472    1131.2573   -119.69097    591.99234   -443.21394   -422.04462    249.29783   -4982.9665 
 9520000    53.199212   -5151.4091   -5048.8099   -5151.4091            0   -46.185229    19.977086    19.945259    20.977987    8358.6402   -956.92828    1406.7195    -588.3469   -5.2441829     409.3936    51.446179     -5054.44 
 9521000    49.733817   -5149.0183   -5053.1025   -5149.0183            0   -889.93452    20.004338    20.032168    20.890701     8371.536    -478.3316   -1296.6313   -894.84064    61.506589   -146.59646   -757.41491   -5161.7548 
 9522000    52.283614   -5145.6197   -5044.7864   -5145.6197            0   -602.68675    20.038084    20.016753    20.915502     8389.153   -1166.9708   -481.47138   -159.61802   -81.052161    211.19532   -79.401789   -5118.5234 
 9523000    52.426375   -5152.9743   -5051.8656   -5152.9743            0    -198.3433    20.040517    19.980586     20.82607    8339.2019   -481.64317   -276.59537    163.20865   -42.284504     295.6546   -985.95422   -5075.9878 
 9524000    54.175638   -5140.8807   -5036.3984   -5140.8807            0   -941.43315    20.062918    19.972843    20.967935    8402.1348   -1180.1084    -1115.196   -528.99508   -131.92026    236.61479   -404.30135   -5151.7583 
 9525000     52.10523   -5140.9256   -5040.4363   -5140.9256            0   -1147.0195    20.059286    20.060548    20.849477    8389.8349   -2163.7151   -595.42479   -681.91858   -305.05605   -124.54381   -89.424359   -5180.7823 
 9526000    56.012796   -5148.8437   -5040.8183   -5148.8437            0   -235.25776    20.033907    19.915209    21.016115    8384.9978   -1577.2397    1095.8068   -224.34039   -354.85148     726.2316   -183.29011   -5069.5872 
 9527000     56.43382    -5148.944   -5040.1066    -5148.944            0   -400.54199    20.125168    19.962765    20.898282    8395.9683   -990.33635   -163.84605   -47.443558   -19.714617    1033.1626    12.023861   -5089.1516 
 9528000    49.992228   -5147.2002    -5050.786   -5147.2002            0   -495.47788    20.100302    19.892443    20.961237    8381.2276   -295.98588   -161.30457   -1029.1432   -26.440691    341.76114    100.48069   -5111.3491 
 9529000    54.374042   -5150.2547   -5045.3898   -5150.2547            0   -273.49945    19.974653    19.996728    20.942586    8365.0491    14.214929   -408.49431   -426.21896   -200.21894    201.86934    379.10134   -5078.7556 
 9530000    53.441708   -5145.2734   -5042.2066   -5145.2734            0     269.6664    20.013577    19.939782    21.020509    8388.5782    163.45237    801.22414    -155.6773    68.642098   -27.301065    74.959429   -5009.2159 
 9531000    53.429552   -5145.9775   -5042.9341   -5145.9775            0   -218.16852    19.971774    20.019925    20.936717    8371.1988   -301.50853   -503.66068    150.66365   -120.95993    156.87419      818.079   -5069.5693 
 9532000    53.488008   -5146.6416   -5043.4855   -5146.6416            0   -283.60171    19.958867    20.011909    21.048211    8406.9721   -276.40515   -560.26521   -14.134781   -106.87078   -536.75768    19.277108   -5078.2571 
 9533000     56.04656   -5151.7846   -5043.6941   -5151.7846            0   -559.72947    19.945481    20.018016    21.064341    8410.3379    15.523198   -807.39966   -887.31196   -244.15365   -334.25669   -101.92529   -5112.3483 
 9534000    52.571855   -5151.9135   -5050.5243   -5151.9135            0   -295.50272    19.972936    20.027641    20.980932    8392.5993    320.88612   -687.44863   -519.94565    -120.0536    240.42728    96.098946    -5086.693 
 9535000    50.025027   -5153.2978   -5056.8204   -5153.2978            0    400.40754    20.055207    19.964086    20.852089    8348.8402    417.32946    344.40111    439.49205    77.497337    -503.6778    238.91257    -5008.067 
 9536000    49.971038   -5150.1915   -5053.8182   -5150.1915            0   -517.43354    20.000332    19.984113    21.072164    8422.3098   -86.651072   -720.59886   -745.05067    209.27486   -4.0591395    41.514573   -5117.3749 
 9537000    52.952448   -5149.5098   -5047.3865   -5149.5098            0   -1013.3255    19.954471    20.035757    21.043717    8413.3397   -1515.8789   -537.46443   -986.63313    -163.1621      286.115   -156.61125   -5171.7215 
 9538000    54.212017   -5147.9826   -5043.4301   -5147.9826            0   -1077.7776    20.038559    19.977586    21.033603    8420.2145   -741.03741   -1364.9496   -1127.3458   -125.98167    458.10022    689.14571   -5175.7814 
 9539000     50.93241   -5150.3547   -5052.1273   -5150.3547            0    -531.9794    20.017867     19.96884    21.016741     8401.097   -164.61855   -551.96164   -879.35801   -255.00835   -175.85641    199.07373   -5117.3061 
 9540000    51.035053   -5145.6392   -5047.2138   -5145.6392            0    -182.5992    20.037228    19.937731    21.030629    8401.6703   -458.63469    -92.17598    3.0130875   -362.19881    13.097004    41.502261   -5069.5877 
 9541000    49.870899   -5143.7222   -5047.5419   -5143.7222            0    189.21387    20.036056    19.981507    20.812155    8332.1589   -123.48978    180.43208    510.69932    -112.7117    30.808889    37.571687   -5024.5494 
 9542000    51.969744   -5149.3153   -5049.0873   -5149.3153            0   -493.12548    20.029343    19.998229    20.984311     8405.295   -118.92346   -808.72624   -551.72675   -271.88094    575.14635    454.84992   -5109.5359 
 9543000    54.219974   -5147.5201   -5042.9524   -5147.5201            0    187.86501    20.091384     19.94496    20.980868    8407.4923   -682.47351    461.52024    784.54831   -57.240121     100.2401    166.83586   -5019.9173 
 9544000    50.703696    -5151.351   -5053.5647    -5151.351            0    132.30239    19.972356    19.902043    21.099357    8386.7978    598.45011    113.38765   -314.93059   -134.94997   -314.98992   -215.94124   -5037.3824 
 9545000    51.929977   -5152.9935   -5052.8421   -5152.9935            0   -294.75794    20.026209    20.038526    20.890045    8383.0852    -1114.028    5.8918567    223.86236   -231.97656    335.61791    274.18358   -5088.8788 
 9546000    51.509947   -5148.5258   -5049.1846   -5148.5258            0    63.130276    20.000427    19.995857    21.024904    8408.3991    87.074141   -402.86654    505.18322   -201.40012    717.82522    181.41906    -5041.443 
 9547000    51.237191    -5146.777   -5047.9617    -5146.777            0   -293.84547    20.014226    19.965824    20.946994    8370.4298   -880.80383   -44.768282    44.035712   -97.254502   -136.11119    466.28012   -5083.8327 
 9548000    52.200132   -5153.1034   -5052.4311   -5153.1034            0   -401.57354    20.021969    20.088987    20.875824    8396.6964   -719.17237   -914.79016    429.24192   -361.93566    720.37952   -309.61093   -5101.6067 
 9549000    55.207328   -5151.7393   -5045.2673   -5151.7393            0    195.01113    20.029212    19.910675    21.016052    8381.0991     687.5195   -397.66292    295.17682   -162.12678    195.01262   -366.33413   -5021.4311 
 9550000     52.17506   -5152.4967   -5051.8727   -5152.4967            0   -157.19926    19.892927    19.973491    21.109251    8387.3642    1233.6995   -669.64871   -1035.6486    13.939313    407.15085    181.58049   -5071.1015 
 9551000    56.785189   -5140.7697   -5031.2547   -5140.7697            0   -339.22233     20.02702    19.978167    21.046774    8420.8809    -1393.818    275.01003    101.14095   -95.496936    212.33552   -755.61123   -5072.9146 
 9552000    51.916971    -5150.265   -5050.1387    -5150.265            0   -92.242215    19.917787    20.056333     20.90569    8351.3583   -71.377314    -310.1436    104.79427    38.737482   -337.05226   -185.53961   -5061.3735 
 9553000    49.027661   -5150.0306   -5055.4766   -5150.0306            0   -864.04849     19.99966    19.948026    21.026709    8388.6842   -517.65386   -1284.4455    -790.0461   -203.83058   -47.324977    176.21467   -5161.1846 
 9554000    51.545835   -5141.5175    -5042.107   -5141.5175            0   -771.26884    19.998843    20.031954    20.940154    8388.9588   -1062.0489   -271.84811    -979.9095   -111.67699    83.354297     227.8147   -5136.4674 
 9555000    53.767577   -5149.3265   -5045.6312   -5149.3265            0   -324.32248    20.006781    19.980015    21.004406    8396.2128   -615.11744    145.39822   -503.24823   -338.17443    855.61907     -57.0075   -5085.3445 
 9556000    55.614576   -5147.7986   -5040.5412   -5147.7986            0    221.90824    19.985458    20.000408    20.949792    8373.9943    169.87563    206.75467    289.09443   -176.63429    806.94312   -444.85201   -5013.4404 
 9557000    50.926432   -5152.3584   -5054.1425   -5152.3584            0    -140.4829    19.990632     19.96523    21.017955    8388.6352    470.02101    -422.9817     -468.488   -104.05613     56.24199   -372.82126   -5071.3291 
 9558000    54.288773   -5150.7738   -5046.0733   -5150.7738            0   -732.99329    20.025547     20.05735    21.032171    8447.7695   -1456.4927    -242.4773   -500.00988   -96.088877    491.14156   -624.95524   -5136.3796 
 9559000    51.596181   -5148.3243   -5048.8167   -5148.3243            0    -432.7935    20.044497    19.977605    21.010663    8413.5316   -922.20713   -9.7574379   -366.41594   -88.272846    186.10763    103.08432   -5101.9217 
 9560000    53.287878   -5149.6652   -5046.8951   -5149.6652            0   -62.860422    20.013527    19.945449    21.047876    8401.8654   -452.50709    928.92406   -664.99823    118.28011    436.85961   -342.15074   -5054.5975 
 9561000    53.142819   -5149.5806   -5047.0902   -5149.5806            0    786.44536    19.943698    19.917861    20.962996    8327.2522    1277.0455    1137.5793   -55.288743    28.623459     570.9492    494.54881   -4951.5807 
 9562000    54.335832   -5142.1564   -5037.3652   -5142.1564            0   -745.70975    19.976278    19.973939    21.103039    8420.2171   -339.86806   -517.54937   -1379.7118    229.62014    446.17868   -76.064408   -5128.9385 
 9563000    55.679319   -5150.1105   -5042.7282   -5150.1105            0    148.57802    20.039927    19.942494    20.893439    8349.9823    200.14065    300.96209   -55.368696   -196.62203    432.04231   -540.88227    -5024.635 
 9564000    52.829201   -5148.6331   -5046.7476   -5148.6331            0    -5.358379    20.116337    19.787693    21.097458    8397.9676   -342.64927    1163.2968   -836.72267   -131.45819    15.602065    220.19805   -5047.4038 
 9565000    52.983799   -5151.5535   -5049.3697   -5151.5535            0   -388.09966    19.953989    20.005313    20.978758    8374.4223    258.44531   -1185.6176    -237.1267    26.490463    271.28707   -741.18083   -5096.7693 
 9566000    51.704521   -5137.0357   -5037.3192   -5137.0357            0   -765.22414    19.967793    20.008589    21.115003    8436.0211   -705.43034   -505.56808    -1084.674    340.80485    302.15809     586.1065   -5131.4653 
 9567000    51.621597   -5148.6035   -5049.0469   -5148.6035            0   -371.20459    19.992478    19.990689     20.88714    8347.8256   -889.86726    88.532998   -312.27951   -31.128424    356.69134    45.652965   -5094.2391 
 9568000    51.050908   -5145.2976   -5046.8417   -5145.2976            0   -1113.2228    20.028534    20.046019    20.986479    8425.9113   -916.41888   -1674.9641   -748.28532    14.314484    104.45131   -229.29097   -5183.6381 
 9569000    49.577948   -5149.7493   -5054.1341   -5149.7493            0   -370.06627    20.086782     19.91847    20.833523    8335.4499   -1002.4875    34.669789   -142.38112   -100.57277   -57.929127     177.3117   -5099.1208 
 9570000    52.133237   -5144.4055   -5043.8621   -5144.4055            0   -808.88667    20.021128    20.054291    20.937794    8406.7237   -1185.1267   -225.91592   -1015.6174    45.060407    431.49871    210.81784   -5143.0344 
 9571000    51.996472   -5144.3575    -5044.078   -5144.3575            0    -87.06912    19.934465    20.038143    20.990377    8384.5987   -99.533821    241.18575   -402.85928   -366.30418   -265.77293    136.29936   -5054.7248 
 9572000    56.441663   -5143.7725     -5034.92   -5143.7725            0   -461.88863     20.04381    19.991692    21.028039    8426.1383   -763.83423   -540.69463   -81.137033   -264.24096   -183.09485   -2.8754891   -5091.6799 
 9573000    50.277357   -5152.3294   -5055.3653   -5152.3294            0   -615.06207    20.051444    19.980053    20.880539    8365.3478   -317.28877   -1291.4951   -236.40235    -180.7086     25.51659   -494.99593   -5130.4029 
 9574000    50.603875   -5149.5955   -5052.0017   -5149.5955            0   -639.45983    20.026744    19.978467    20.951236    8382.6659    -1044.631   -452.32181   -421.42664   -192.01306   -163.46289   -555.69864   -5130.1773 
 9575000    53.683567   -5153.3566   -5049.8234   -5153.3566            0    136.58575    19.989179    19.989544    20.876801    8341.8387     21.32841    344.22984    44.198989   -149.87054    935.35628    276.00319   -5033.2067 
 9576000    54.411944   -5151.9595   -5047.0215   -5151.9595            0    318.81759    19.929046    19.943204    21.043925    8363.8874    790.22941    141.03496    25.188389   -325.01998   -789.82526    36.691404   -5008.1326 
 9577000    50.172803   -5150.0346   -5053.2721   -5150.0346            0   -736.87943    20.020044    19.985149     21.06136     8426.725    -618.9309   -945.18231   -646.52508   -353.23047    172.81419    369.68039    -5143.831 
 9578000    55.630526   -5146.0129   -5038.7247   -5146.0129            0   -300.20286    20.043922    20.007446    20.986592    8416.2042   -456.20623   -246.99713   -197.40522    26.985993    12.274739   -401.07802   -5075.5721 
 9579000    51.043409   -5150.3785   -5051.9369   -5150.3785            0    49.454488    19.939104    20.040876    20.912439    8356.5503    550.61381    -812.0308    409.78045    15.478781   -245.62538   -881.53794   -5045.9098 
 9580000    53.467282   -5145.9701    -5042.854   -5145.9701            0   -1318.8157    20.037554    19.988063    21.017191    8417.6345   -1456.8396    -1068.957   -1430.6506    -86.32647    186.92078    659.89985   -5204.7552 
 9581000    53.589613   -5149.6588   -5046.3067   -5149.6588            0    34.653311    20.028956    19.956586    20.954303     8375.636    419.17072    115.20791    -430.4187   -204.69415       853.09   -225.75813   -5042.0738 
 9582000    53.582874   -5155.7566   -5052.4175   -5155.7566            0   -60.485268    19.941553    19.996896    21.046257    8392.5985    717.86218   -603.88406   -295.43392    173.82084    320.28238   -103.53952   -5059.8207 
 9583000    54.738861    -5150.887   -5045.3185    -5150.887            0    -70.17677    20.045508    20.012371    20.891769    8380.9031    132.27937   -830.44631    487.63663   -216.10871   -181.21484    986.91469    -5053.896 
 9584000    55.206158   -5146.7492   -5040.2795   -5146.7492            0   -245.56991    19.983696    20.035084    20.879115    8359.4763   -81.958331   -692.93007     38.17866   -35.280046    237.27447   -54.825458    -5070.218 
 9585000     51.43438   -5151.1435   -5051.9479   -5151.1435            0   -332.43218    20.036589    19.888474    21.030854    8380.7361   -315.32353   -190.51254   -491.46048   -14.729066    1311.6771   -554.11939   -5092.5793 
 9586000    52.137807   -5148.9715   -5048.4194   -5148.9715            0   -902.45209    19.998713    20.019424    21.006291    8410.1356   -905.57573   -1378.7812   -422.99935   -356.89712    372.87685    87.002948    -5159.108 
 9587000     50.11723   -5146.3794   -5049.7241   -5146.3794            0   -337.84102    20.106125    19.889654    20.938361    8373.3316   -689.54128   -148.59872   -175.38307   -155.48052     10.78921   -240.21891     -5090.98 
 9588000    53.866421    -5151.714   -5047.8281    -5151.714            0     248.5284    19.975453    19.957729    20.893542    8329.5172    -176.7171    301.16664    621.13565   -88.390181    233.55839    95.362538   -5017.6375 
 9589000    50.247588   -5154.1253   -5057.2186   -5154.1253            0   -364.41606     20.02209    20.059708     20.75412    8335.6282    146.55362   -1055.2904   -184.51145    -216.3959    538.87989   -301.58818   -5101.5194 
 9590000    49.952044   -5144.2238   -5047.8871   -5144.2238            0   -119.34208    20.052281     19.99413    20.940946      8395.81    86.869079    400.77302   -845.66833    31.304833     345.8236    423.57429   -5062.4999 
 9591000     49.94395   -5146.1222   -5049.8011   -5146.1222            0    -39.79933    20.051204    19.940762    21.056939    8419.3288   -14.780007    27.285778   -131.90376   -306.93598    43.001738   -186.82537   -5054.6879 
 9592000     52.61646   -5150.4113   -5048.9361   -5150.4113            0   -111.19598     20.07988    19.993671    20.951495    8411.4072   -809.42091    225.18552    250.64746    66.047448    11.410266   -131.19561   -5062.5767 
 9593000    55.273153   -5149.9129    -5043.314   -5149.9129            0   -62.391984    19.986879    19.934642    20.943979    8344.7366    397.67235   -172.46106   -412.38724    143.07756    469.18912   -588.17798    -5050.907 
 9594000     54.27473   -5151.0503   -5046.3769   -5151.0503            0   -113.08668    20.020061    19.972897    20.917059    8363.8664   -291.14053    252.46269   -300.58222   -246.06671    326.61305    253.36758    -5060.171 
 9595000     49.91562   -5150.0557   -5053.7892   -5150.0557            0     434.8844    20.050791     19.97084     20.91066    8373.2796     329.5041    305.68054    669.46856    99.339821    715.11078   -3.0810371    -5000.683 
 9596000    54.374509    -5151.144   -5046.2782    -5151.144            0    440.70934    20.094063    19.892585    20.945112      8372.24   -129.03773    818.71463    632.45112   -58.750025    146.75278    44.809694   -4992.4673 
 9597000    55.288336   -5153.3267   -5046.6985   -5153.3267            0   -224.72995    20.069458    20.000745    20.885707    8383.6085   -617.61947   -204.97369     148.4033   -367.60637    272.45455    499.39334   -5074.1754 
 9598000    52.060241   -5148.0317   -5047.6292   -5148.0317            0   -931.57419    20.000408     20.05062    21.001021    8421.8417    -532.6759   -1611.7054   -650.34129   -156.63714    93.338665    862.69189   -5162.0488 
 9599000    51.658633   -5148.5482   -5048.9202   -5148.5482            0   -701.51631    20.007961    20.014869    20.989732    8405.4795   -1240.5832   -17.986562   -845.97916   -332.52897    152.89629    204.58726   -5134.9158 
 9600000    53.144881   -5150.9246   -5048.4303   -5150.9246            0   -1133.6429    20.122979    19.971256    20.959543    8423.2454   -1444.8042   -1237.5186     -718.606    24.944982    724.82406    190.82969   -5187.6919 
 9601000    50.656999   -5154.9951   -5057.2988   -5154.9951            0   -256.75711    19.992705    19.976036    20.993326     8384.209     268.4095   -508.04257   -530.63826    -225.6127    389.19439    66.300426   -5088.6938 
 9602000    51.385351    -5145.307    -5046.206    -5145.307            0    92.584965    20.047624    19.966148    20.906285    8368.2383    451.11961   -776.07514    602.71043      68.9506     226.7146    259.10081   -5034.9067 
 9603000    53.165254   -5144.9884   -5042.4547   -5144.9884            0   -572.59326    19.997103    20.050814    20.880982    8372.4011   -1344.0512   -475.56866    101.84004   -207.51445    500.47403    257.77519     -5112.37 
 9604000    52.530967   -5144.3725   -5043.0621   -5144.3725            0   -76.450458    20.031838    19.909641    21.032761    8388.4265    1088.5534   -896.69477   -421.21005    4.5845363   -78.119038    169.50354   -5052.4148 
 9605000    56.162304   -5146.0083   -5037.6946   -5146.0083            0    12.307051    20.038805    19.968968    21.003624    8404.6897   -1.7492023    248.04657   -209.37621   -409.45203    227.57152    11.099647   -5036.1861 
 9606000    52.421126   -5152.8718   -5051.7733   -5152.8718            0   -456.49695    20.076559    19.975975    20.908522    8385.3386    -704.7627   -487.82659   -176.90156   -250.17491   -232.22966    422.95959    -5107.599 
 9607000    53.106184   -5148.7417   -5046.3219   -5148.7417            0    398.99948    20.031499    20.036122    20.842797    8365.3311    705.32212    -152.9588    644.63513    227.26826    287.67408   -211.71605   -4997.6441 
 9608000     54.22573   -5147.9436   -5043.3647   -5147.9436            0    89.692132    19.981723    19.925428    20.892427    8318.2024    103.57944    149.04594    16.451024   -240.77985    881.69593   -35.634557    -5032.484 
 9609000    54.695802   -5153.5496   -5048.0642   -5153.5496            0    262.88435    20.018386     19.98277    20.907453    8363.4582    514.45022    105.20952    168.99332    -22.36548    209.07464   -194.15953   -5015.9995 
 9610000    54.344243   -5146.8071   -5041.9997   -5146.8071            0    -300.5399    20.009086    19.886195    21.084915    8389.7847    -108.9436    116.56928   -909.24537    92.051686    358.35316   -511.76258   -5078.7726 
 9611000    55.833685    -5147.455    -5039.775    -5147.455            0   -408.29094    20.037452    20.013078    20.908065     8384.366   -1610.9572    457.45616   -71.371761   -28.883888    411.62392    115.27389   -5089.6997 
 9612000    51.773288   -5143.6616   -5043.8125   -5143.6616            0   -774.10811    20.043397    20.038075    20.890442    8390.2506   -560.30979   -1044.8966   -717.11793   -79.209463   -179.48289    278.33693   -5138.5348 
 9613000    52.234656   -5152.3741   -5051.6352   -5152.3741            0    14.823103    19.983927    19.966361    20.993298    8376.4581    69.394241    67.255934   -92.180866   -239.71128    232.25711   -244.34512   -5049.8243 
 9614000    52.882678   -5146.7086   -5044.7199   -5146.7086            0   -563.23155    20.053012    20.021903    20.903057    8392.5662    -594.2509   -556.23465   -539.20909   -108.48328    639.56125   -359.34521   -5113.6578 
 9615000    52.518113   -5148.5822   -5047.2966   -5148.5822            0    -74.43076     20.03958    19.962241    20.970791    8389.0483   -547.01374    499.00609   -175.28463   -40.116996    184.30126    125.87002   -5056.4029 
 9616000    52.362537   -5153.8173   -5052.8317   -5153.8173            0    50.249748    20.098358    19.889589    20.855489    8336.9417   -44.095021    356.00005   -161.15579   -31.869782    82.268661   -228.17605   -5046.7221 
 9617000    50.485447   -5149.5628   -5052.1974   -5149.5628            0    13.559271    19.940524    19.958757    21.078888    8389.1458    711.98471   -293.11993   -378.18697   -39.384668    1283.0933    327.01612   -5050.5384 
 9618000    50.645264   -5146.7553   -5049.0817   -5146.7553            0   -52.388211     19.95734    20.110711    20.910301    8392.4812   -3.9157078   -49.367341   -103.88158    98.844306    342.76271   -229.39113   -5055.4938 
 9619000    52.263107   -5153.1913   -5052.3975   -5153.1913            0   -129.49931    19.977567    19.971803    21.049251    8398.3991    38.891642    102.71996   -530.10952   -29.801354   -540.57497    -204.3022   -5068.2588 
 9620000    52.062653   -5147.1928   -5046.7856   -5147.1928            0    -301.2954    20.022894    19.993945    20.911602    8371.6805    145.79671   -779.32421    -270.3587   -28.803974    119.63281   -29.443306   -5083.5715 
 9621000    50.698519    -5152.851   -5055.0746    -5152.851            0   -704.89701    19.976092    19.975773    21.019226    8387.4674    47.387708   -1470.2897     -691.789   -112.86132   -246.93297    121.91497   -5141.2994 
 9622000    53.384362   -5144.2426   -5041.2863   -5144.2426            0   -301.03487    19.920956    19.982523    21.083779    8392.8403   -587.48052    507.92331   -823.54741   -14.866832   -164.45346   -300.88952   -5078.1333 
 9623000    54.769901    -5151.842   -5046.2137    -5151.842            0   -7.6278328    19.990933    19.998292    20.984938     8389.453    32.632503    36.068865   -91.584867     22.17667    199.55059   -55.633033    -5047.147 
 9624000    52.364228   -5146.5773   -5045.5885   -5146.5773            0    221.04987     19.95722    19.969564    20.982295    8362.2206    117.51309      285.348    260.28853    86.246786    329.82932   -111.58468   -5018.6305 
 9625000    54.340764    -5148.197   -5043.3963    -5148.197            0   -724.66724    20.017062    19.992668    21.036099    8418.5305   -792.60876   -654.92757   -726.46539    104.85363    433.23996     211.1162   -5132.3678 
 9626000    50.930278   -5152.9791   -5054.7558   -5152.9791            0   -331.08936    19.982604    20.024717    20.902605    8364.0937   -209.03341   -745.88258   -38.352093   -161.86783    389.74816    392.53322   -5095.1426 
 9627000    54.786966   -5155.1297   -5049.4684   -5155.1297            0   -671.42396    19.985166    20.022605    21.047176    8422.1348   -550.94911   -912.26917   -551.05359   -59.849174    458.51956   -448.95367   -5131.9382 
 9628000    53.226616   -5153.4847   -5050.8327   -5153.4847            0    335.22886    19.917087      19.9984    21.066139    8390.8509   -67.589454    587.51248    485.76354    138.50502    554.07152     325.9173   -5009.8101 
 9629000    55.401909   -5146.6318   -5039.7845   -5146.6318            0   -239.31142    20.040079    19.963594    20.973076    8390.7406   -239.38972   -101.35678   -377.18777   -25.153296    270.74025     33.46746   -5069.0692 
 9630000    51.385043    -5155.862   -5056.7616    -5155.862            0   -95.575747    20.009717    20.003357    20.870363    8353.6027   -39.419918   -278.22258    30.915261   -166.28367   -356.51053    -464.1929   -5068.4055 
 9631000    49.878813   -5150.8956   -5054.7001   -5150.8956            0   -837.89379    20.002126    19.971957    20.991142    8385.5747   -935.48921    -674.1128   -904.07935   -10.452054   -225.66846    521.40423   -5157.1703 
 9632000    53.433623   -5143.9555   -5040.9043   -5143.9555            0   -624.23287    19.957619    20.062962    20.951138    8389.0234   -894.09338   -748.09982   -230.50542   -314.43696   -213.38239   -758.13506   -5117.2763 
 9633000    53.611528   -5144.2814    -5040.887   -5144.2814            0     406.0499    20.028336    20.039063    20.814876    8354.0317    9.3953196   -19.599721    1228.3541   -171.34101    308.74586   -550.42769   -4991.4159 
 9634000    52.056367   -5151.8181   -5051.4231   -5151.8181            0    40.099349    20.004903    20.009256    20.933889    8379.4843    659.90395     -300.938    -238.6679    147.84697   -256.36122   -808.22233   -5046.5227 
 9635000    53.851116   -5152.4893   -5048.6328   -5152.4893            0   -422.18927    20.020351    20.063586    20.936359    8409.7174    283.13905   -1396.9898   -152.71702    82.846178    2.5463496   -231.57483   -5100.4131 
 9636000    55.516455   -5153.3156   -5046.2475   -5153.3156            0   -91.737295    19.976509    20.006825    21.030528    8405.1982   -53.397264   -1.4116873   -220.40293   -466.42246   -94.161511    69.276824   -5057.4927 
 9637000    52.578379   -5153.4487   -5052.0468   -5153.4487            0    -859.2353    20.034325    20.006288    20.953635    8398.4783   -662.81652     -997.352    -917.5374   -144.42179    500.22085   -291.37656   -5157.2887 
 9638000    50.459726   -5148.3653   -5051.0495   -5148.3653            0   -186.47575    20.029777    19.983688    20.941336    8382.1634   -93.830844   -31.007045   -434.58935   -252.94048    13.095861    54.786777   -5073.8453 
 9639000    49.947897   -5152.8557    -5056.527   -5152.8557            0   -672.17308    20.011894    20.004347    20.951716    8387.4932    -582.5132   -629.86169   -804.14434   -282.73031    734.07344    170.79314   -5138.7492 
 9640000    51.189723   -5144.0701   -5045.3464   -5144.0701            0   -237.86906    20.074088    20.085419    20.755225    8368.4333    -403.8647   -1351.0524    1041.3099   -182.16266    368.06083     48.84319   -5074.3772 
 9641000    53.316779   -5151.0786   -5048.2527   -5151.0786            0   -875.01211    20.018033     20.06553    20.974856    8425.0215   -1082.8641   -968.48446   -573.68776   -20.797564    3.6162282   -780.70008   -5155.7657 
 9642000    54.174582   -5152.2521   -5047.7719   -5152.2521            0   -1022.0835    20.042314     19.90481    21.148155    8436.8119   -1062.3283    9.7634877   -2013.6857   -71.454653    440.54129   -302.62224   -5173.5314 
 9643000    52.242052   -5150.2783   -5049.5251   -5150.2783            0   -368.40041    20.028531    20.073916    20.961647    8427.6524    310.08252   -1224.1509   -191.13279   -409.03557    432.30228    338.46881   -5094.8047 
 9644000    56.310898   -5154.5929   -5045.9926   -5154.5929            0   -490.98703    19.981767    19.993673    20.954621    8371.5579   -837.90738     98.72557   -733.77929   -204.19208    485.80759     67.29981   -5105.9375 
 9645000    51.993085   -5148.1441    -5047.871   -5148.1441            0   -786.12482    20.056741    20.011978    20.902125    8389.5916   -723.68206   -963.84279   -670.84959   -200.66675   -487.51098    108.50725   -5144.0562 
 9646000    53.088164   -5153.8399   -5051.4549   -5153.8399            0   -257.05718     20.01313    19.943453    21.015578     8387.967    314.81899   -674.16516   -411.82537    -261.1705    320.15057   -257.37566   -5082.9006 
 9647000    51.705106   -5154.9994   -5055.2817   -5154.9994            0   -685.09697    19.959056    20.047465    20.980272    8394.8042   -331.67083   -626.04879   -1097.5713   -26.546063   -353.76059    310.65949   -5139.1579 
 9648000    51.775348   -5151.5727   -5051.7196   -5151.5727            0   -1017.4191    19.992766    19.950455    21.091464    8412.6421   -1345.8046   -901.31437   -805.13836    42.453195    531.70633    556.95952   -5176.5465 
 9649000    53.196577   -5144.4284   -5041.8343   -5144.4284            0   -282.05568    20.014336    20.022663    21.066427    8442.1666   -106.83461   -606.16104   -133.17138   -21.756118   -357.38861   -329.29849   -5076.5611 
 9650000    52.230346   -5149.6268   -5048.8962   -5149.6268            0    236.73519    19.925536    20.074316    20.881923    8352.5917    304.72193   -263.62549    669.10912    11.786959    645.01334    377.58542   -5020.0585 
 9651000    54.032623   -5142.5003   -5038.2939   -5142.5003            0    311.77463    19.940638    19.996891    20.990496    8369.9763    440.52614     561.1018   -66.304042   -26.974982    392.02839    50.330978   -5000.2363 
 9652000     53.61609   -5147.4435   -5044.0403   -5147.4435            0    419.83491    20.025923    19.989085    20.910719    8370.5587     502.3598    71.528943      685.616   -66.195681    670.23392   -3.6530372   -4992.7885 
 9653000    50.524376   -5148.0001   -5050.5596   -5148.0001            0    114.10253    19.973962    20.011075    20.901641    8354.3952    -82.00515    70.275617    354.03712    255.51435    586.39927   -624.02004   -5036.6573 
 9654000     52.36068   -5148.5703   -5047.5883   -5148.5703            0   -13.332869    20.041174    19.972429    20.861579    8350.2833   -215.25178   -513.03562    688.28879   -48.901448     518.4396    30.872046    -5049.212 
 9655000    52.487734   -5150.5168   -5049.2898   -5150.5168            0   -90.527046    19.929627    19.958152     20.99119     8349.425    -220.7292    417.96412   -468.81606   -17.146131    439.96603     250.5077    -5060.313 
 9656000    51.279138   -5151.0244   -5052.1282   -5151.0244            0   -1146.1354    20.049938    19.985589    21.043046    8432.1552   -1058.2958   -1322.8373   -1057.2732   -317.91988    444.85397   -223.14876   -5193.0735 
 9657000    54.505554   -5150.6806   -5045.5621   -5150.6806            0   -638.24296    19.918716     20.07146    20.949487    8375.5571    941.75184   -2151.3999   -705.08085    -291.2907    438.56317    310.70261   -5123.5227 
 9658000    49.862371   -5150.3845   -5054.2207   -5150.3845            0   -438.54852    20.136476    19.903904    20.829804    8348.4709        -1682    425.42395   -59.069499   -41.785505    165.54337   -296.73152   -5107.6157 
 9659000    50.979271   -5150.0243   -5051.7065   -5150.0243            0   -548.33955    20.030017    19.919319    21.017865     8385.798   -590.12164   -135.15339   -919.74361    34.067329   -345.26018   -151.93256   -5118.7674 
 9660000     50.71659   -5142.7367   -5044.9255   -5142.7367            0  -0.90787887    20.007609    19.918367    21.044784     8386.744   -440.62433    577.01903   -139.11834   -77.984959    51.691699    358.02715   -5045.0366 
 9661000    50.382535   -5148.6434   -5051.4764   -5148.6434            0   -547.31578    20.050171    19.978131    20.916594    8378.4542   -652.19211   -796.15479   -193.60043   -111.69431    699.91606    688.22549   -5118.3536 
 9662000    51.958858   -5147.1956   -5046.9885   -5147.1956            0   -1021.1665    20.031324    20.030282      20.9239    8395.3605   -537.27084   -1616.9739    -909.2547   -227.53711    928.57738    239.78837   -5172.0178 
 9663000    52.460649   -5148.4915   -5047.3167   -5148.4915            0   -477.30698    19.937641    20.085104    20.859321    8353.1067   -328.60028   -965.81216   -137.50851    28.752612    436.37088    530.03595    -5105.463 
 9664000    53.206673   -5155.2769   -5052.6633   -5155.2769            0   -299.57265    20.029311    19.984774    20.946317    8384.4181   -635.03948    323.21102   -586.88947   -55.875023    485.28788    26.961033   -5089.2945 
 9665000    52.992213   -5151.2414   -5049.0414   -5151.2414            0   -97.351231    19.947582    19.968217    21.090624    8400.7679   -76.792613    350.25301   -565.51409   -270.11114    492.34502    451.63974   -5060.9686 
 9666000    51.976484   -5146.3137   -5046.0727   -5146.3137            0     -451.383    20.026932    19.995921    20.951362    8390.1189   -543.50288   -497.61565   -313.03047   -39.142937    74.059346    833.99871   -5101.3045 
 9667000     52.42158   -5148.5468   -5047.4474   -5148.5468            0   -356.40664    19.976366    20.008476     21.05212    8414.4613   -1086.3324    310.39203   -293.27952   -50.743913   -470.47202   -145.35597   -5091.1843 
 9668000     55.85776   -5148.3146   -5040.5882   -5148.3146            0    97.488914    20.043258    19.933038    20.871362    8338.5893   -213.06075    461.54613    43.981362   -81.858587    62.054474    585.48941   -5028.7326 
 9669000    54.457618   -5144.6397   -5039.6136   -5144.6397            0    443.36726    20.008005     20.09389    20.808907    8365.9847    464.25024   -615.77269    1481.6242    -236.4442   -487.82444    236.97819   -4985.5187 
 9670000    51.242719    -5145.527   -5046.7011    -5145.527            0   -223.84672     20.01536    20.008453     20.86528    8356.0519    354.47909   -732.67118   -293.34808    162.63789   -167.81026    -486.8808   -5073.9801 
 9671000    53.624691   -5147.7615   -5044.3418   -5147.7615            0   -495.59642    20.009571    19.962295    21.025448    8398.3408   -388.60226   -555.58525   -542.60176    28.399642   -377.50634   -422.02188    -5105.043 
 9672000    54.662744   -5156.2744   -5050.8527   -5156.2744            0    -283.1436    19.995444    20.035757    20.948631    8392.5211   -231.16581   -751.22466    132.95967   -341.48866    671.47129   -490.41606   -5085.5084 
 9673000    51.893228     -5151.57   -5051.4896     -5151.57            0    -371.1051    19.945267    19.956321    21.008372    8362.0494   -146.97988   -220.53972   -745.79569    51.359267    261.73983   -332.31842   -5096.7466 
 9674000    52.634713   -5148.7459   -5047.2355   -5148.7459            0   -847.23835    20.149274    19.939098    20.878105    8387.9532   -1018.7256   -1098.0211   -424.96835    -203.4498   -390.80828   -438.67378   -5150.8779 
 9675000    52.524144   -5150.2643   -5048.9671   -5150.2643            0   -399.22529    19.976663    20.025482    20.960385    8385.0411    92.392457   -1093.3344   -196.73393   -187.28905   -153.71483     251.6741   -5097.7872 
 9676000    53.561393   -5156.2345   -5052.9368   -5156.2345            0    -599.1548    20.061764    20.020782    20.908633    8397.9985    -1276.325   -202.49767   -318.64176    154.03281    373.34972   -162.85596    -5126.319 
 9677000    51.727121   -5146.2362   -5046.4761   -5146.2362            0   -664.91467     20.03058    19.943125    21.078349    8420.2182   -1493.2493    210.21664   -711.71133    208.24931     359.8974     408.1295   -5128.1278 
 9678000     51.42127   -5146.5134   -5047.3431   -5146.5134            0   -427.26756    19.940253      20.0518    20.924294     8366.327   -102.07324   -864.33601   -315.39343    101.99843    412.63012    341.37024   -5099.4759 
 9679000    54.552395   -5146.3447   -5041.1358   -5146.3447            0   -673.70696    19.974266    20.021004     20.96032    8382.1335    262.33974    -1453.586   -829.87465   -16.787341    503.51545    578.06373    -5123.493 
 9680000    53.526954   -5147.1236   -5043.8924   -5147.1236            0   -164.14248     19.97196    19.984194    21.025631    8391.8242    420.25545   -506.02649   -406.65638   -270.69741    342.80158    237.63638   -5063.9812 
 9681000    52.892764   -5151.8832    -5049.875   -5151.8832            0   -555.47432    20.042002    19.966203    20.992553    8400.4363    145.69723   -1119.1322   -692.98802   -262.24817    324.22699   -1015.4223   -5117.9272 
 9682000    50.705924   -5146.2186    -5048.428   -5146.2186            0   -293.83323    19.975582    20.011644    21.019027    8402.2347   -339.68088   -396.64322   -145.17558   -249.33118    524.87216   -183.03838   -5084.4337 
 9683000    52.950157   -5153.4384   -5051.3195   -5153.4384            0   -405.88208    20.082695    19.924864    21.025672    8413.3171   -980.71424    117.41803   -354.35002   -184.11496   -351.60289    547.68995   -5101.1211 
 9684000    51.254177   -5150.5356   -5051.6876   -5150.5356            0   -60.449237    20.036138    19.968348     20.96574    8388.1528    578.44366   -567.53089   -192.26048   -195.39106     302.1392   -357.76797   -5059.0825 
 9685000    55.278758   -5148.6962   -5042.0865   -5148.6962            0   -949.97808     20.11643    19.997135    20.932875    8420.6882   -1450.4754   -1153.4037    -246.0552     44.32389    650.62772   -209.97052   -5158.7505 
 9686000    54.284075   -5146.2735   -5041.5821   -5146.2735            0   -303.15236    20.015529    19.944332    21.017389    8390.0648   -337.39179   -209.39999   -362.66531    105.51943   -321.44993    47.082558   -5078.6759 
 9687000    54.301088   -5156.7807   -5052.0565   -5156.7807            0    526.49404    20.026061    19.931935    20.881927    8335.1915    581.20288    217.09645    781.18279   -321.68186   -397.07582    121.75555   -4988.0557 
 9688000    53.369236   -5148.2086   -5045.2816   -5148.2086            0     405.7026    20.021924    19.866335    21.035903    8367.2884    792.42756    568.66719   -143.98695    226.63713   -99.055387    949.23098   -4995.7744 
 9689000     50.24597    -5150.048   -5053.1445    -5150.048            0    56.461246    19.981301    19.931262    20.981573    8355.9648    455.98108   -2.3032025   -284.29414    90.679099   -274.72111     319.4092   -5046.2639 
 9690000    54.029837   -5141.8726   -5037.6715   -5141.8726            0   -726.08792    20.088034    19.915159    21.075502    8431.3894    -907.4328   -545.21656    -725.6144   -163.90658   -168.25152   -124.37961   -5126.9536 
 9691000    54.311288   -5151.3023   -5046.5584   -5151.3023            0   -176.07168    19.997944    20.062783    20.876354    8375.8939   -502.43126   -490.23493    464.45114   -91.661862    496.96335   -262.88742   -5068.0663 
 9692000     52.99254   -5148.1956    -5045.995   -5148.1956            0   -186.82761    19.973551    20.007432    20.933946    8365.6124    87.252486   -52.029226   -595.70608    53.170791   -276.05132    391.98575   -5068.7887 
 9693000    52.477097   -5148.5237   -5047.3172   -5148.5237            0   -729.97518    20.051815    20.003526    21.034821    8437.2141   -984.58188    102.89827   -1308.2419    52.583385    818.94531    372.31022   -5137.1393 
 9694000    53.480811   -5144.8549   -5041.7127   -5144.8549            0   -277.42276    19.959072    19.924265    21.134685     8404.627   -497.68219    -222.0322    -112.5539   -199.52928    179.62918     286.6243   -5075.7172 
 9695000    52.891567   -5149.1944   -5047.1886   -5149.1944            0   -184.55804    19.932581     19.97855    21.129402    8414.2366   -920.52151    712.16357   -345.31618   -124.26224    368.32015   -138.69286   -5069.8363 
 9696000     52.68161    -5150.809    -5049.208    -5150.809            0   -131.07165    20.034591    20.000368    20.874066    8364.2215   -150.87427   -598.40551    356.06483   -295.49392    142.35311   -533.33968   -5065.1966 
 9697000    50.684306   -5144.9095   -5047.1606   -5144.9095            0   -910.74344    20.050386    20.010534    20.971918    8414.3306   -603.24907   -1358.8111   -770.17017   -33.769632     315.7465    660.36231   -5158.9219 
 9698000    53.028843    -5148.924   -5046.6534    -5148.924            0   -350.74602    20.100609    19.968527    20.800236    8348.7896   -1176.6835    368.70072   -244.25528   -156.67025    9.5266031    33.193895   -5089.3597 
 9699000    53.504704   -5144.7578   -5041.5695   -5144.7578            0   -713.26481    20.078913    19.877683     21.04852     8400.933   -861.19288   -113.05736   -1165.5442   -41.445957    31.518233    -63.48141    -5128.958 
 9700000    51.367978    -5149.866   -5050.7985    -5149.866            0   -1130.6448    19.968873    20.003352    21.056717     8410.988   -322.45451   -1774.6486   -1294.8314    65.480465    453.00121    53.766107   -5189.4898 
 9701000    51.258816   -5147.4176   -5048.5607   -5147.4176            0   -680.60544    20.065229    19.883321    21.019686    8386.0855   -834.14825   -920.70292   -286.96516   -96.570745    110.40847    391.26774   -5131.8004 
 9702000    52.987351   -5149.1106   -5046.9201   -5149.1106            0   -291.83866    20.035853    19.960797    20.962253    8383.4674   -435.03937   -73.892005   -366.58462    -487.9941    305.45536     12.67093   -5082.6015 
 9703000    51.222671   -5151.2108   -5052.4235   -5151.2108            0   -770.63119    20.013932    20.005427    21.030287    8420.2589     -536.284   -1194.5513   -581.05827    266.02719   -399.13842    180.58863   -5147.0577 
 9704000    52.368455   -5153.2529    -5052.256   -5153.2529            0   -437.25361    19.973742     19.97801    20.930641    8352.0712   -235.57724   -539.24347    -536.9401     30.12663    281.96169   -108.44888   -5105.5162 
 9705000    50.576401   -5153.5451   -5056.0043   -5153.5451            0   -296.82722    20.015404    20.037568    20.870834    8370.4573   -150.13133   -664.52028   -75.830043   -92.782384   -165.11297   -338.77431   -5092.2393 
 9706000    50.617897   -5150.9759    -5053.355   -5150.9759            0   -276.36144    19.949183    20.054667     21.03065     8413.821    323.39861   -652.56616   -499.91675   -88.196473    511.53303     65.02256   -5087.2665 
 9707000    52.462974   -5149.5418   -5048.3625   -5149.5418            0   -1052.7092     20.05158    19.970363    21.012594     8414.227   -1725.4668   -342.32145   -1090.3394    76.156003   -89.207747    32.852308   -5177.5435 
 9708000     53.39259   -5148.0082   -5045.0361   -5148.0082            0   -1062.0374    20.105833     19.93659    21.026933    8428.4726   -1293.8643   -1034.7165   -857.53156   -100.70631    637.01486   -240.22485   -5175.5825 
 9709000    52.925934   -5151.0233   -5048.9512   -5151.0233            0    548.22003    19.981459     20.01625    20.860595    8343.2756    765.74179    47.533384    831.38492    110.32411    430.06146     373.7265   -4982.2448 
 9710000    55.185701   -5147.4162   -5040.9859   -5147.4162            0    202.03334    19.984623    19.921299    21.095654    8398.5944    681.14719    465.05381   -540.10098   -184.08454    159.49502   -144.52639   -5016.2399 
 9711000     52.66437   -5148.1558   -5046.5881   -5148.1558            0   -260.53551    20.059031    20.035947    20.808496    8362.9697    9.4162527   -1526.1285    735.10569   -249.06447    1107.2419    587.64197   -5078.3644 
 9712000    52.566782   -5149.7607   -5048.3812   -5149.7607            0   -795.36166    19.972574     20.02384    20.977983     8389.675   -343.11468   -1401.0898   -641.88052   -296.13142   -338.43147   -589.47337   -5145.6975 
 9713000    53.215697   -5145.4272   -5042.7963   -5145.4272            0   -592.09602    19.980091    20.037899    20.920124    8375.5607   -961.60535   -437.11371     -377.569   -243.41527    205.49599   -105.76855   -5115.1202 
 9714000    53.145693   -5148.6418   -5046.1459   -5148.6418            0    16.480498    20.093597    19.840127    21.108198    8414.9842   -813.93598    1107.7998   -244.42232   -209.43661    287.95427    158.54371   -5044.1233 
 9715000    52.291676   -5157.1163   -5056.2674   -5157.1163            0     -4.59628    19.988603    19.953705    20.914744    8341.7765   -330.00741     490.2973   -174.07873   -17.819687    254.21032    189.62146   -5056.8266 
 9716000    52.362239   -5152.1308   -5051.1458   -5152.1308            0   -258.56496    20.084988    19.941342    20.886924    8365.6645   -223.18409   -199.90165   -352.60913   -97.556283   -313.76949   -307.71153   -5082.6919 
 9717000      49.5981   -5149.1156   -5053.4615   -5149.1156            0   -314.49668    19.945339    19.995237    21.031282    8387.5232    256.36301   -880.91482   -318.93824    27.420028     77.34663    285.51264   -5091.9318 
 9718000    54.367118   -5147.9453   -5043.0937   -5147.9453            0   -352.77271    20.058802     19.97417    20.910608    8378.0009   -1024.7092   -19.318328    -14.29063   -80.076969    555.68156    138.97783   -5086.1971 
 9719000     52.48902    -5145.519   -5044.2895    -5145.519            0   -94.400836    19.934471    19.973334    21.114234    8406.7976    501.92755    149.91374    -935.0438   -291.38969   -4.1879913    70.893636   -5055.8635 
 9720000    51.324219   -5151.7556   -5052.7725   -5151.7556            0   -402.95503    20.110557    20.029603    20.729535    8349.9908    -617.9004    -770.0986    179.13391   -120.88937   -415.27971   -880.83457   -5101.8428 
 9721000    52.917355   -5153.5537   -5051.4981   -5153.5537            0    258.11699    19.980425    19.909215    20.944514    8331.6139    301.97667   -321.02283    793.39712   -35.716971   -80.752975     99.41372   -5020.1348 
 9722000    52.439697   -5153.6083    -5052.474   -5153.6083            0   -234.61137    20.045238    19.953441    20.927222    8370.2916    54.267187   -170.89021    -587.2111   -7.6530716    1.5618978    178.87092   -5081.1135 
 9723000    50.795931   -5148.1039   -5050.1396   -5148.1039            0   -121.33762    20.124794    19.850281    21.024197     8398.805   -1290.4038    545.07099    381.31993   -485.09531    379.70675   -397.10545    -5065.002 
 9724000    54.008122   -5154.0071   -5049.8479   -5154.0071            0    169.47566    20.013047       19.963    20.918662    8357.4334   -626.84419    518.99161    616.27956   -199.78622    394.11095    558.61692   -5029.1914 
 9725000    50.186782   -5150.0249   -5053.2355   -5150.0249            0    -302.5917    19.955694    19.984221    21.015003    8380.7622    613.89323    -980.4591   -541.20923   -224.30983    1033.1404   -225.74185   -5090.2197 
 9726000    51.390852   -5147.7636   -5048.6521   -5147.7636            0   -592.47358    20.062497     19.90074    21.099341     8424.092   -492.67081   -340.08317   -944.66676   -134.94834   -62.022067    26.736722   -5121.4414 
 9727000    56.440337   -5143.1056   -5034.2557   -5143.1056            0   -157.69566    20.043588     20.02004    20.918737    8394.1337   -84.882078   -717.81712    329.61222   -343.39249     608.5008   -696.73399   -5053.5607 
 9728000    54.112739   -5146.5027   -5042.1417   -5146.5027            0   -421.84702    19.927054    19.886438    21.221788    8409.7304   -569.87363    410.25632   -1105.9237    126.04235    399.64136   -45.914701   -5093.8801 
 9729000    53.971852   -5148.7801   -5044.6908   -5148.7801            0    298.85389    20.004005    19.979661    20.917283    8360.0779    62.597415    317.00369    516.96057   -274.66604    280.53467   -367.37189   -5008.2536 
 9730000    54.930403   -5147.2983   -5041.3604   -5147.2983            0    432.31747    19.962115    19.958984    21.056042    8389.2228    1076.4334    261.24467   -40.725619   -426.60618    20.086641   -16.998353   -4988.4671 
 9731000    53.228311   -5147.8845   -5045.2293   -5147.8845            0   -238.03978    20.059807    19.942165    20.910393    8364.9095   -88.533766   -459.31678   -166.26878    54.071468    207.11557   -582.10193   -5074.2686 
 9732000    52.931152   -5149.0257   -5046.9435   -5149.0257            0   -247.36472    19.975128    19.909231    21.124884    8401.1433   -926.82678    779.16511   -594.43248   -145.32643     576.2095   -270.20538   -5077.2512 
 9733000    53.874958   -5153.7103    -5049.808   -5153.7103            0    4.6198978    20.043164    19.893242    21.058607    8396.5615   -394.02358   -43.181144    451.06442   -408.75533   -89.629808    427.18306   -5049.2422 
 9734000    54.076353   -5150.0998    -5045.809   -5150.0998            0    153.57595    20.037227    19.978197    20.988621    8401.9063    244.92146    -535.5076    751.31399   -293.91128    59.807864    198.06578   -5026.9909 
 9735000     51.05772    -5151.655   -5053.1859    -5151.655            0   -114.21506    20.019355    20.008867    20.799978    8331.7351   -667.45177     421.5518   -96.745195    183.25253    589.86351   -66.784625   -5067.0641 
 9736000    52.670916   -5153.6172   -5052.0369   -5153.6172            0   -34.000999    20.030358    19.987916    20.954992    8389.6477    628.12565   -452.81706   -277.31159   -46.456031   -100.76316    297.92776   -5056.1971 
 9737000    51.871935   -5147.1396   -5047.1002   -5147.1396            0   -1148.0366    20.107817    19.970923    21.013363    8438.3711   -1777.2241   -824.38987   -842.49581   -213.19442     485.8618    176.13447   -5188.3833 
 9738000    54.386519   -5149.9398   -5045.0508   -5149.9398            0    -523.0828    20.022882    19.985942     20.96583    8390.0248   -278.72055   -988.83505   -301.69281   -32.921763    608.52088    -260.4307   -5109.0552 
 9739000    50.939136   -5146.2095   -5047.9691   -5146.2095            0   -1225.5139     19.99299    20.056897    21.026325    8431.5007   -1392.4287   -1051.7308   -1232.3823   -276.99182    756.69972   -283.41458   -5198.6641 
 9740000    51.908167   -5145.7522    -5045.643   -5145.7522            0   -313.04307    20.060143    19.961171     20.92156    8377.4937   -419.33087   -174.08643    -345.7119   -165.75609    355.85448   -46.802353   -5083.8897 
 9741000    50.783854   -5148.9789    -5051.038   -5148.9789            0   -193.72426    20.018956    19.941747    20.999379    8383.2237    347.49176   -571.64871   -357.01582   -105.31518   -140.04907    -165.9346   -5074.7229 
 9742000    52.418441   -5149.6409   -5048.5475   -5149.6409            0    102.07772      20.0628    20.045173    20.840778    8381.3755    210.02871   -669.20014    765.40459    -143.8298    63.436192   -164.74706   -5036.0702 
 9743000    53.591439   -5146.6747   -5043.3191   -5146.6747            0   -274.13239    20.044296    19.988973    20.936324    8388.4501   -843.91598     124.1843   -102.66549   -168.34134    505.01839   -328.20262   -5076.8556 
 9744000    55.119831   -5150.3703   -5044.0671   -5150.3703            0   -642.22015    20.001394    20.065465    20.984534    8421.8756   -553.15457   -804.56483   -568.94103     -202.694    671.90348    -139.2781   -5122.9474 
 9745000    55.094413   -5145.8099   -5039.5557   -5145.8099            0   -192.63864    19.995582    20.061465    20.832443    8356.7401    87.515928   -695.53231    30.100467    162.03902    761.09208    55.679286   -5063.0334 
 9746000    54.400575   -5148.1885   -5043.2724   -5148.1885            0   -333.29331    20.038269    19.965721    20.908285    8364.9552   -660.13386   -416.28497    76.538901   -128.24866    1106.5582    506.87452   -5083.9323 
 9747000    54.898614   -5153.7406    -5047.864   -5153.7406            0   -392.60884    20.065891    19.895312    20.952495    8364.5957   -699.72638   -247.17748   -230.92267   -38.778355    546.01443    495.05644    -5095.758 
 9748000    53.267314   -5145.5967   -5042.8662   -5145.5967            0    -905.1019     20.11702    20.040652    20.816864    8392.4893   -1336.0595   -853.66475   -525.58146    28.882552    336.07399   -245.58116   -5153.6469 
 9749000    51.122075   -5150.0678   -5051.4746   -5150.0678            0   -490.98398    20.080307    19.929141     20.99757    8402.8761    -946.3563     317.2414   -843.83704    112.02791   -117.04999    264.08156   -5111.6434 
 9750000    54.755177   -5144.3732   -5038.7732   -5144.3732            0    -120.0907    19.939848    19.979113    21.075463    8396.0533   -337.90589    160.78862   -183.15483   -19.256962    668.24367   -242.48275   -5053.4781 
Loop time of 373.562 on 64 procs for 250000 steps with 972 atoms

Performance: 115.643 ns/day, 0.208 hours/ns, 669.233 timesteps/s
99.0% CPU use with 64 MPI tasks x 1 OpenMP threads

MPI task timing breakdown:
Section |  min time  |  avg time  |  max time  |%varavg| %total
---------------------------------------------------------------
Pair    | 17.23      | 26.782     | 36.501     |  89.3 |  7.17
Bond    | 0.259      | 0.27567    | 0.29332    |   1.2 |  0.07
Kspace  | 152.84     | 162.43     | 172.47     |  36.8 | 43.48
Neigh   | 0.085275   | 0.09256    | 0.09604    |   0.9 |  0.02
Comm    | 83.437     | 84.765     | 86.249     |   8.0 | 22.69
Output  | 0.59263    | 0.59389    | 0.59579    |   0.1 |  0.16
Modify  | 88.295     | 89.795     | 93.275     |  11.8 | 24.04
Other   |            | 8.825      |            |       |  2.36

Nlocal:        15.1875 ave          19 max          11 min
Histogram: 2 4 10 9 0 7 13 11 6 2
Nghost:        2218.25 ave        2236 max        2194 min
Histogram: 2 3 1 4 11 17 6 9 5 6
Neighs:        4699.30 ave        6274 max        3205 min
Histogram: 2 8 7 7 10 9 4 11 4 2

Total # of neighbors = 300755
Ave neighs/atom = 309.41872
Ave special neighs/atom = 2.0000000
Neighbor list builds = 260
Dangerous builds = 0

unfix		3
unfix		2
unfix		1

write_data	data.final.${pid}
write_data	data.final.1
System init for write_data ...
PPPM initialization ...
  extracting TIP4P info from pair style
  using 12-bit tables for long-range coulomb (../kspace.cpp:340)
  G vector (1/distance) = 0.37215614
  grid = 24 24 25
  stencil order = 5
  estimated absolute RMS force accuracy = 0.0034376516
  estimated relative force accuracy = 1.0352386e-05
  using double precision FFTW3
  3d grid and FFT values/proc = 2366 288
Last active /omp style is kspace_style pppm/tip4p/omp
WARNING: Not all mixed pair coeffs generated from mixing. Use write_data with 'pair ij' option to store all pair coeffs. (../write_data.cpp:312)

write_restart   restart.lmp.${pid}
write_restart   restart.lmp.1
System init for write_restart ...
PPPM initialization ...
  extracting TIP4P info from pair style
  using 12-bit tables for long-range coulomb (../kspace.cpp:340)
  G vector (1/distance) = 0.37215614
  grid = 24 24 25
  stencil order = 5
  estimated absolute RMS force accuracy = 0.0034376516
  estimated relative force accuracy = 1.0352386e-05
  using double precision FFTW3
  3d grid and FFT values/proc = 2366 288
Last active /omp style is kspace_style pppm/tip4p/omp
Total wall time: 0:06:13
