LAMMPS (30 Jul 2021)
  using 1 OpenMP thread(s) per MPI task
package omp 0
using multi-threaded neighbor list subroutines
echo both

include		in.partitions
variable        pid world 0
include		in.temp
variable        temperature equal 244.00
variable	tempDamp equal 100.0
include		in.pressure
variable        pressure equal 4375.0
variable        pressureDamp equal 1000.0 # This is 1 ps
include		in.seed
variable        seed world 745823

units		real
atom_style	full
read_restart	restart.lmp.${pid}
read_restart	restart.lmp.0
Reading restart file ...
  restart file = 30 Jul 2021, LAMMPS = 30 Jul 2021
  restoring atom style full from restart
  orthogonal box = (0.42780250 1.5954261 0.52191805) to (17.779770 22.033752 21.691278)
  4 by 4 by 4 MPI processor grid
  restoring pair style lj/cut/tip4p/long/omp from restart
  restoring bond style harmonic/omp from restart
  restoring angle style harmonic/omp from restart
  864 atoms
  576 bonds
  288 angles
Finding 1-2 1-3 1-4 neighbors ...
  special bond factors lj:    0        0        0       
  special bond factors coul:  0        0        0       
     2 = max # of 1-2 neighbors
     1 = max # of 1-3 neighbors
     1 = max # of 1-4 neighbors
     2 = max # of special neighbors
  special bonds CPU = 0.413 seconds
  read_restart CPU = 0.626 seconds
include 	in.setup
variable	out_freq equal 1000
variable	out_freq2 equal 10000
variable	out_freq3 equal 1000

timestep	2.0

neigh_modify    delay 7 every 1

include		in.tip4p
# This is TIP4P/Ice

# create groups ###
group ox type 2
288 atoms in group ox
group hy type 1
576 atoms in group hy

# set charges - beside manually ###
set group ox charge -1.1794
Setting atom values ...
  288 settings made for charge
set group hy charge 0.5897
Setting atom values ...
  576 settings made for charge

# ### TIP3P Potential Parameters ###
pair_style lj/cut/tip4p/long/omp 2 1 1 1 0.1577 8.5
pair_coeff 1 1*2 0.000 0.000
pair_coeff 2 2 0.21084 3.1668
bond_style  harmonic
bond_coeff  1 450 0.9572
angle_style harmonic
angle_coeff 1 55 104.52
kspace_style pppm/tip4p/omp 1.0e-5
pair_modify tail yes

thermo          ${out_freq}
thermo          1000
thermo_style    custom step temp pe etotal epair emol press lx ly lz vol pxx pyy pzz pxy pxz pyz enthalpy

restart 	${out_freq3} restart.lmp.${pid} restart2.lmp.${pid}
restart 	1000 restart.lmp.${pid} restart2.lmp.${pid}
restart 	1000 restart.lmp.0 restart2.lmp.${pid}
restart 	1000 restart.lmp.0 restart2.lmp.0


include         in.dump
dump            myDump all atom ${out_freq2} dump.water.${pid}
dump            myDump all atom 10000 dump.water.${pid}
dump            myDump all atom 10000 dump.water.0
dump            myDump2 all dcd ${out_freq2} dump.dcd
dump            myDump2 all dcd 10000 dump.dcd
dump_modify     myDump append yes
dump_modify     myDump2 append yes


variable natoms 	equal  "count(all)"                        # NUMBER ATOMS
variable H      	equal  "enthalpy/v_natoms"                 # ENTHALPY-per-atom
variable Vol      	equal  "vol/v_natoms"                 # volume-per-atom
fix AVG all 		ave/time ${out_freq} 1 ${out_freq} v_Vol v_H file vol_enthalpy.dat
fix AVG all 		ave/time 1000 1 ${out_freq} v_Vol v_H file vol_enthalpy.dat
fix AVG all 		ave/time 1000 1 1000 v_Vol v_H file vol_enthalpy.dat


timer           timeout 23:50:00 every 1000
New timer settings: style=normal  mode=nosync  timeout=23:50:00

fix 		1 all shake 1e-6 200 0 b 1 a 1
       0 = # of size 2 clusters
       0 = # of size 3 clusters
       0 = # of size 4 clusters
     288 = # of frozen angles
  find clusters CPU = 0.259 seconds
fix             2 all nph iso ${pressure} ${pressure} ${pressureDamp}
fix             2 all nph iso 4375 ${pressure} ${pressureDamp}
fix             2 all nph iso 4375 4375 ${pressureDamp}
fix             2 all nph iso 4375 4375 1000
fix             3 all temp/csvr ${temperature} ${temperature} ${tempDamp} ${seed}
fix             3 all temp/csvr 244 ${temperature} ${tempDamp} ${seed}
fix             3 all temp/csvr 244 244 ${tempDamp} ${seed}
fix             3 all temp/csvr 244 244 100 ${seed}
fix             3 all temp/csvr 244 244 100 745823

run             250000
PPPM initialization ...
  extracting TIP4P info from pair style
  using 12-bit tables for long-range coulomb (../kspace.cpp:340)
  G vector (1/distance) = 0.37401267
  grid = 24 24 25
  stencil order = 5
  estimated absolute RMS force accuracy = 0.0030996016
  estimated relative force accuracy = 9.3343581e-06
  using double precision FFTW3
  3d grid and FFT values/proc = 2730 288
Last active /omp style is kspace_style pppm/tip4p/omp
Neighbor list info ...
  update every 1 steps, delay 7 steps, check yes
  max neighbors/atom: 2000, page size: 100000
  master list distance cutoff = 10.8154
  ghost atom cutoff = 10.8154
  binsize = 5.4077, bins = 4 4 4
  1 neighbor lists, perpetual/occasional/extra = 1 0 0
  (1) pair lj/cut/tip4p/long/omp, perpetual
      attributes: half, newton on, omp
      pair build: half/bin/newton/omp
      stencil: half/bin/3d
      bin: standard
Per MPI rank memory allocation (min/avg/max) = 9.239 | 9.242 | 9.249 Mbytes
Step Temp PotEng TotEng E_pair E_mol Press Lx Ly Lz Volume Pxx Pyy Pzz Pxy Pxz Pyz Enthalpy 
 1750000    262.69756   -3924.4557   -3474.2011   -3924.4557            0    2202.9491    17.351967    20.438326     21.16936     7507.611    1373.0353    3171.3901    2064.4219    98.580125   -360.76475    784.70877   -3232.9984 
 1751000    246.44418   -3937.5527   -3515.1558   -3937.5527            0    4982.3485    17.296929    20.373497    21.102212    7436.3969    5381.2414    6425.5581    3140.2462   -177.75754    499.23816    114.76173   -2974.8091 
 1752000    243.06101   -3925.6821   -3509.0839   -3925.6821            0    3936.5674    17.323103    20.404327    21.134145    7470.2072    4347.0237    4571.1111    2891.5675    819.42023   -992.26615    755.80311   -3080.2133 
 1753000    244.10496   -3928.0165   -3509.6289   -3928.0165            0    6096.2592    17.330429    20.412956    21.143083     7479.689    7147.5093    5166.4335    5974.8349   -509.74264   -1235.3788    189.68826   -2844.6271 
 1754000    229.01822   -3949.8167   -3557.2873   -3949.8167            0    2788.9857    17.341177    20.425615    21.156195    7493.6132    2345.9407    3674.9671    2346.0492    751.82779    111.33275   -53.714965   -3252.4884 
 1755000    253.03268   -3911.1521   -3477.4628   -3911.1521            0    5803.8247    17.291975    20.367663    21.096169    7430.0099    6194.7734    4741.1595    6475.5411   -64.788803    539.55551    216.70846   -2848.5657 
 1756000    256.63172   -3921.1894   -3481.3314   -3921.1894            0    5433.3127    17.257806    20.327416    21.054483    7386.0518    4686.7727    4847.1739    6765.9916    723.54686    1173.6224     968.7995   -2896.0659 
 1757000    238.96968   -3889.2157   -3479.6299   -3889.2157            0    5160.6312    17.349784    20.435753    21.166695    7504.7767    4789.9459    4816.1891    5875.7585    1260.4463   -670.31056    906.53989   -2914.8015 
 1758000    237.22864   -3904.9842   -3498.3824   -3904.9842            0    4571.9936    17.336662    20.420298    21.150687     7487.762    5677.1698    2362.4009      5676.41   -663.46429   -885.22752   -206.89541   -2999.1146 
 1759000    256.38837   -3907.5189   -3468.0781   -3907.5189            0    6322.0499    17.297844    20.374575    21.103329    7437.5775    5139.1628    6430.3946    7396.5923   -20.386962   -725.46142   -912.30933   -2782.3288 
 1760000    244.65585   -3912.3313   -3492.9996   -3912.3313            0    3468.0866     17.39818    20.492758    21.225739    7567.7553    1515.2713     3790.493    5098.4957   -858.67713    49.533908    29.923277    -3110.234 
 1761000    249.48695   -3953.0712   -3525.4591   -3953.0712            0    6613.9807    17.268079    20.339517    21.067016    7399.2499    5404.6823     8142.982     6294.278   -730.68395    74.095167    217.01697   -2811.7414 
 1762000    252.98623   -3928.8313   -3495.2215   -3928.8313            0    4807.1047    17.325857    20.407571    21.137505    7473.7706    5546.2641    5585.7209    3289.3291   -348.11987    -1809.991    1058.2969   -2971.2602 
 1763000    246.17634   -3931.5385   -3509.6007   -3931.5385            0    4740.4944    17.312206    20.391492    21.120851    7456.1185     5347.164    3595.2015    5279.1177    966.64314    495.13976    392.75817   -2994.1201 
 1764000    235.52348   -3944.1684   -3540.4892   -3944.1684            0     5107.408      17.3929    20.486539    21.219297    7560.8669    5702.7487    4443.5372    5175.9382    40.046342    -226.8768    725.53101   -2977.3082 
 1765000    243.35375   -3921.7636   -3504.6636   -3921.7636            0    4185.8287    17.328673    20.410888     21.14094    7477.4151    3485.2495    4341.9564    4730.2803     -419.483    150.82208    1011.2111   -3048.1972 
 1766000    255.41863   -3966.0925   -3528.3137   -3966.0925            0    5022.3231     17.33062    20.413181    21.143316    7479.9361    4253.7152    3724.6274    7088.6268   -1283.9388    369.75429     113.8834   -2980.4425 
 1767000    242.69051   -3935.3124   -3519.3492   -3935.3124            0    6951.2519    17.283817    20.358054    21.086217    7419.4989    8160.8192    5921.0584    6771.8781    325.11825   -195.70408    1517.4598   -2767.1835 
 1768000    233.84808   -3975.1228   -3574.3152   -3975.1228            0    3508.5474    17.389936    20.483047    21.215681    7557.0016    3223.9298    4557.7791    2743.9334    627.29597    -576.6357   -419.65937   -3187.6343 
 1769000    241.93618     -3943.19   -3528.5196     -3943.19            0    4310.4869    17.412008    20.509046    21.242609    7585.8139    5686.1775    3083.4321    4161.8511   -802.74841    -930.9921    371.42394   -3051.6448 
 1770000     237.3579     -3958.66   -3551.8367     -3958.66            0    4062.3771    17.405708    20.501625    21.234923    7577.5827    3489.4101    4524.0169    4173.7045   -716.27711    -794.6777   -757.89548   -3102.8982 
 1771000    247.49595   -3959.1438   -3534.9442   -3959.1438            0    4550.4223    17.332412    20.415292    21.145502    7482.2562    5011.3239    4478.4007    4161.5425    -777.8229    281.85264   -53.052678   -3038.3974 
 1772000     250.4028   -3929.5281   -3500.3462   -3929.5281            0    4038.6986    17.371314    20.461114    21.192963    7532.7513    3680.5015    5125.0813    3310.5129    987.96711    453.17521     1419.881   -3056.6651 
 1773000    234.41395   -3936.8781   -3535.1006   -3936.8781            0    6327.6759    17.252246    20.320867      21.0477    7378.9151    5877.7822    8044.8063    5060.4391    61.312016    425.30007   -40.106357   -2854.1547 
 1774000    258.92895   -3911.3753     -3467.58   -3911.3753            0      4069.82    17.356984    20.444235     21.17548    7514.1247     3997.285     5266.647    2945.5281   -731.91616   -856.77818   -50.294414   -3021.5855 
 1775000     245.2853   -3923.5058   -3503.0952   -3923.5058            0    3431.8998    17.419812    20.518238     21.25213    7596.0183    3556.6988    2282.9092    4456.0912    -65.66273    249.48236   -505.69074   -3122.9088 
 1776000    264.87073   -3934.1106   -3480.1312   -3934.1106            0    4109.3733    17.403314    20.498805    21.232002    7574.4558    2847.3896    4987.7793     4492.951   -1447.7098    777.80285    514.52334   -3026.1865 
 1777000    245.83718   -3936.1604   -3514.8039   -3936.1604            0    4025.9012    17.402911     20.49833     21.23151    7573.9293    2334.2201    5733.0736    4010.4097   -752.89873    1368.2724   -374.56488   -3070.1109 
 1778000    255.20738   -3961.8602   -3524.4435   -3961.8602            0    4153.1744    17.340648    20.424992     21.15555    7492.9274    4867.0085    3124.8445    4467.6701   -543.29634   -230.18117    1599.8537   -3070.5985 
 1779000    238.18792   -3964.7865   -3556.5406   -3964.7865            0    5288.5735    17.420657    20.519233     21.25316     7597.123    5120.2341    5000.3489    5745.1374    601.80767    1586.6394   -1646.6741   -2970.5865 
 1780000    250.60718   -3937.6541   -3508.1219   -3937.6541            0     4386.963    17.449662    20.553397    21.288547     7635.134    4780.1124    5651.1932    2729.5834   -115.41904    622.94075    468.20118    -3019.631 
 1781000    251.22093    -3917.528   -3486.9439    -3917.528            0    2322.4536     17.41162    20.508589    21.242136    7585.3071    2350.7684    2769.7163     1846.876   -372.16876    802.33907    -473.5444    -3230.025 
 1782000    238.77924   -3910.7158   -3501.4563   -3910.7158            0    3577.8946    17.407908    20.504216    21.237607    7580.4557    3952.9392    5102.3358    1678.4087   -563.75895   -118.26404   -1574.2197   -3105.9087 
 1783000    243.22033   -3919.0212   -3502.1499   -3919.0212            0    4174.4633    17.361591    20.449661      21.1811    7520.1093    3299.9718    4204.9615    5018.4565   -423.80388   -1347.1181     787.3707   -3044.3237 
 1784000    237.36677   -3943.2913   -3536.4527   -3943.2913            0    5221.9568    17.317963    20.398273    21.127875    7463.5599    4975.7507    4278.7366    6411.3831   -110.95878    -332.1228   -1661.3087   -2968.0513 
 1785000    240.96011   -3971.2756   -3558.2782   -3971.2756            0    3945.5514    17.330275    20.412775    21.142895    7479.4896    5000.1494    1473.0851    5363.4197   -155.48793   -938.53445    -105.1009   -3127.8947 
 1786000    238.84992   -3949.8651   -3540.4845   -3949.8651            0    3657.6628    17.309918    20.388796    21.118059    7453.1625    3588.3235    3519.7871    3864.8777   -304.20986    553.57845   -917.52339   -3142.9085 
 1787000    242.11932   -3933.0032   -3518.0189   -3933.0032            0    4914.6487    17.352029    20.438398    21.169435    7507.6909    5216.8446    3770.9747    5756.1269   -617.62872   -611.58408   -588.38615   -2979.9043 
 1788000    243.37253   -3913.1709   -3496.0387   -3913.1709            0    4226.2253     17.31942    20.399989    21.129652    7465.4437    5321.0801    4041.9216    3315.6743    -337.6795    609.28759   -514.98646   -3035.9049 
 1789000    249.33469   -3921.0749   -3493.7238   -3921.0749            0    4249.4542    17.382027    20.473732    21.206032    7546.6958     4219.664    3270.9287    5257.7699   -995.77728   -608.58036   -47.455779   -3026.0254 
 1790000    239.88669   -3923.5181   -3512.3605   -3923.5181            0     5585.709    17.378857    20.469998    21.202164    7542.5672    4733.3484    6065.2489    5958.5297   -205.78375    176.01354   -1013.4614   -2897.9291 
 1791000    239.20788   -3929.0125   -3519.0184   -3929.0125            0    3399.6858    17.341085    20.425508    21.156084    7493.4951     1929.711    3892.0637    4377.2828   -185.84593    -931.1449   -993.38361   -3147.4839 
 1792000    240.39113   -3930.0331    -3518.011   -3930.0331            0    2754.9816    17.398454    20.493081    21.226074    7568.1127    1101.0791    4301.6195    2862.2461   -1607.0722    342.86795   -667.42944   -3213.9349 
 1793000    248.75135   -3926.3279   -3499.9766   -3926.3279            0    4785.3971    17.322679    20.403828    21.133628    7469.6588    6821.7756    3435.7185    4098.6973   -960.86586   -68.810504   -893.85037   -2978.6683 
 1794000    234.88491   -3911.3914   -3508.8067   -3911.3914            0    4596.2344    17.288856    20.363989    21.092364    7425.9902    6236.2309    5467.2534    2085.2187    1360.5014     461.6343   -24.255141   -3011.0324 
 1795000     243.8354   -3970.1384   -3552.2129   -3970.1384            0    5596.8024    17.187805    20.244964    20.969082     7296.538    7132.9719     4057.043    5600.3922    933.35845    966.66632    863.13346   -2956.6431 
 1796000    254.42375   -3925.8528   -3489.7791   -3925.8528            0    5514.9188    17.283291    20.357434    21.085575    7418.8214    2804.7939     4525.207    9214.7554    475.51193   -641.16531    50.806941   -2893.0875 
 1797000    241.54719   -3949.6783   -3535.6746   -3949.6783            0    3331.1574    17.296555    20.373057    21.101756    7435.9148    2712.2729    3792.2696    3488.9297    1059.1767    493.67508    325.52042   -3174.4266 
 1798000    251.06895   -3928.9041   -3498.5806   -3928.9041            0    4153.3077    17.319033    20.399534     21.12918    7464.9436    4042.5704    4855.1618    3562.1908    -525.9526    32.133715    1558.2721    -3046.416 
 1799000    251.71614   -3915.5683   -3484.1354   -3915.5683            0    3886.2128    17.406895    20.503023    21.236371    7579.1326    3192.9507    4985.5779    3480.1097   -1327.4993    571.00868    122.28985   -3054.5773 
 1800000    237.40342   -3932.6579   -3525.7566   -3932.6579            0     4405.048    17.324533    20.406012     21.13589    7472.0577    3242.3059     5562.746     4410.092    -675.2099    1186.4218    814.64441   -3045.7284 
 1801000    238.85092    -3901.328   -3491.9457    -3901.328            0    2980.4367    17.401323     20.49646    21.229573    7571.8568    1301.0514    4828.6542    2811.6047   -1208.4481   -229.88518   -606.56514   -3162.8228 
 1802000    235.04039   -3936.1681    -3533.317   -3936.1681            0    4808.0023    17.385112    20.477365    21.209796    7550.7147    5129.5679    5655.9943    3638.4448   -1196.5811    912.46916    728.67288   -3003.8625 
 1803000    240.59316    -3949.575   -3537.2066    -3949.575            0     5738.405    17.359549    20.447256     21.17861    7517.4568    5528.8113    6757.9884    4928.4152    1584.9664    1139.0727    247.10391     -2908.08 
 1804000    250.02197   -3931.2489   -3502.7198   -3931.2489            0    5292.2912    17.324097    20.405498    21.135358     7471.493    4872.8099    4917.1252    6086.9386   -170.73309   -778.38247    1211.3128   -2926.0503 
 1805000    247.71854   -3951.3619   -3526.7808   -3951.3619            0    2869.1477    17.382306     20.47406    21.206373    7547.0592    2612.8441    3265.1028    2729.4963   -657.12736    347.21829    1504.4932   -3210.9849 
 1806000    250.66335   -3915.9024    -3486.274   -3915.9024            0    4318.3357    17.352242    20.438649    21.169695    7507.9676     3713.292     5254.626    3987.0892    -608.3269    242.08125   -1303.9597   -3013.4335 
 1807000    249.52127   -3944.5872   -3516.9163   -3944.5872            0     3670.702    17.349989    20.435996    21.166946    7505.0436    3147.7567    4522.5012     3341.848   -1257.4906   -776.47422    1238.6175   -3115.1456 
 1808000    247.98769    -3948.749   -3523.7065    -3948.749            0    5501.0723    17.363247    20.451611    21.183121    7522.2613    5186.3007    3702.4528    7614.4635    328.45279    854.44762   -414.08751   -2920.2143 
 1809000    236.93433    -3911.205   -3505.1076    -3911.205            0    4591.5025    17.353761    20.440438    21.171548    7509.9396    6083.9297    4394.9464    3295.6316    89.254264   -538.02105    1106.7611   -3002.2244 
 1810000    241.30879   -3944.4763   -3530.8813   -3944.4763            0    4644.3137    17.360841    20.448777    21.180185    7519.1344    5463.5611    4199.5951    4269.7849    972.41903   -119.40984    829.94755   -3021.5912 
 1811000    246.58501   -3948.6802   -3526.0419   -3948.6802            0    3671.1458      17.3358    20.419282    21.149635    7486.6449    3383.5804     4961.154    2668.7031    144.60301   -444.74212   -266.77181   -3125.2077 
 1812000    243.94852   -3896.5821   -3478.4626   -3896.5821            0    4901.9808    17.325094    20.406673    21.136575    7472.7837    5135.9481    4760.9247    4809.0697    590.34961    87.065589   -56.241359   -2944.2306 
 1813000    254.14152   -3919.4819    -3483.892   -3919.4819            0    5691.6714    17.378857    20.469998    21.202165    7542.5675    6415.1551    5748.3633    4911.4957   -145.41734   -1264.7417   -1298.4263   -2857.8047 
 1814000    251.42905   -3939.8432   -3508.9024   -3939.8432            0    4753.4678    17.378341     20.46939    21.201535    7541.8955    5484.4392    4283.2299    4492.7343   -191.47313   -1364.7849    488.28104   -2986.0646 
 1815000    245.30183   -3968.8766   -3548.4377   -3968.8766            0    4630.1369    17.340083    20.424327     21.15486    7492.1952      5227.05    4150.0153    4513.3455    321.94993    815.84079    1501.0517   -3042.5212 
 1816000    246.71337   -3907.9894   -3485.1311   -3907.9894            0         4890    17.295518    20.371836    21.100492    7434.5778    4425.3243    6271.5977    3973.0782    1257.8336   -30.377492    1381.9539   -2954.9295 
 1817000    235.52727   -3961.4357     -3557.75   -3961.4357            0    4098.2457    17.331402    20.414103     21.14427     7480.949     3537.214    4954.1841    3803.3391    1137.0787    166.71571   -175.41217   -3110.6233 
 1818000    243.47153   -3933.1168   -3515.8149   -3933.1168            0    5384.9988    17.274121    20.346632    21.074387    7407.0185    4758.9806     6349.154    5046.8618    785.42461   -581.51318    1160.8391   -2934.1071 
 1819000    242.74974   -3965.1326   -3549.0679   -3965.1326            0    4687.8211    17.255489    20.324687    21.051657    7383.0776    6223.7326    3877.6134    3962.1173    1170.8349    193.63183    502.26527   -3044.3085 
 1820000    246.12621   -3947.2391   -3525.3872   -3947.2391            0    3052.3962    17.352236    20.438643    21.169688    7507.9602    1555.2662    3707.0709    3894.8514    697.23576   -183.03537    227.17427   -3191.1623 
 1821000    236.47424   -3941.7236   -3536.4148   -3941.7236            0    3544.8287    17.378497    20.469574    21.201725    7542.0986    1462.1235    4851.8195    4320.5431    1488.3748    -969.0553   -42.654851   -3146.5057 
 1822000    256.09638   -3908.0102   -3469.0698   -3908.0102            0    3585.2538    17.345315     20.43049    21.161244    7498.9794    3335.7687    3869.5191    3550.4736   -389.19593   -1175.8886    1030.9838   -3076.9688 
 1823000    233.30641   -3938.8105   -3538.9313   -3938.8105            0    3939.9937    17.320519    20.401284    21.130993    7466.8655    3387.9998    3746.5047    4685.4766   -492.51485   -881.66698    -1101.136   -3109.8795 
 1824000    253.39586   -3957.7074   -3523.3956   -3957.7074            0    5348.0883    17.327758     20.40981    21.139825    7476.2314    6363.0667    5290.5385    4390.6597    371.51073    750.46827    964.79582   -2940.2766 
 1825000    237.79893   -3913.2202    -3505.641   -3913.2202            0    5366.5019    17.323344    20.404611    21.134439    7470.5188    5110.1973    5906.1699    5083.1386   -716.41167   -1561.7418    343.27824   -2920.9614 
 1826000     240.4714   -3932.3425   -3520.1828   -3932.3425            0    4674.6325    17.283019    20.357114    21.085243    7418.4716    5265.9751    3085.1031    5672.8194      1110.91   -1437.7225    787.86259   -3014.4305 
 1827000    230.09423   -3942.8651   -3548.4915   -3942.8651            0    2790.6677    17.382215    20.473953    21.206261    7546.9401    3718.9953    1459.7803    3193.2275   -372.44886    -400.3821    197.75006   -3241.3384 
 1828000    261.25459   -3899.6094    -3451.828   -3899.6094            0    3040.1899    17.354636    20.441469    21.172616    7511.0758    2606.8294    2303.5919    4210.1482   -372.10308    -89.12791    928.73733   -3118.8015 
 1829000    235.14743   -3914.6891   -3511.6545   -3914.6891            0    4474.7771    17.299668    20.376724    21.105554    7439.9305    5245.0853     2037.391     6141.855    341.20686   -372.61747    60.930915   -3026.1244 
 1830000    248.66395   -3917.2708   -3491.0693   -3917.2708            0    3440.7118     17.39256    20.486138    21.218883    7560.4235    4073.4026    2540.3636    3708.3693    1200.7264   -1448.0553    1222.5072   -3111.6929 
 1831000    242.00314   -3943.1577   -3528.3726   -3943.1577            0    4890.9444    17.423543    20.522632    21.256682    7600.8996    4862.8192    5671.1329     4138.881    293.71728   -672.52916    -864.4187   -2986.2049 
 1832000    237.72157   -3948.2654   -3540.8188   -3948.2654            0    3460.2594    17.307972    20.386505    21.115686    7450.6501    3188.0518    3672.7131    3520.0132     1183.982   -981.28956   -336.70416   -3164.8267 
 1833000    232.43154   -3945.6233   -3547.2436   -3945.6233            0    3556.0633    17.276864    20.349863    21.077733    7410.5475    4883.9556     2817.532    2966.7025    720.41201    444.22319   -824.48084   -3162.9212 
 1834000    264.89763   -3930.3266   -3476.3011   -3930.3266            0    2743.8921     17.36119    20.449189    21.180611    7519.5885    3075.4427    2399.2809    2756.9528    1055.5949    652.53478   -125.13694   -3175.3909 
 1835000    251.29882   -3949.4394   -3518.7219   -3949.4394            0    3204.0461    17.290577    20.366015    21.094463    7428.2073    2162.8621    5012.7124    2436.5637    677.43431    848.34802    368.02826   -3171.6186 
 1836000    247.01016    -3917.086    -3493.719    -3917.086            0    4038.3399    17.279245    20.352668    21.080638    7413.6119    3195.6428    4983.3834    3935.9935   -384.53172   -1669.1823    234.93797    -3057.094 
 1837000    249.02116   -3963.4501   -3536.6364   -3963.4501            0    2319.8484    17.263939     20.33464    21.061966    7393.9295    1873.7007    2986.8665    2098.9779    27.908647   -790.22463    777.73878   -3286.4804 
 1838000    251.11267   -3917.9826   -3487.5841   -3917.9826            0    5918.1656     17.28867    20.363769    21.092137    7425.7499    6265.2614    5354.4488    6134.7867    51.230625     777.6771    109.17508   -2846.6648 
 1839000    244.59838   -3962.6929   -3543.4596   -3962.6929            0    4083.5841    17.333823    20.416954    21.147224    7484.0847    3543.3657    4591.1413    4116.2452    1278.3988    1331.3793    483.85987   -3097.7458 
 1840000    240.25311   -3915.2247   -3503.4391   -3915.2247            0     5255.907     17.28394    20.358198    21.086366    7419.6569     5168.544    5442.5433    5156.6336   -285.59611   -564.81441    1121.9748   -2934.7074 
 1841000    244.56784   -3964.2983   -3545.1174   -3964.2983            0    4092.8511    17.323804    20.405153       21.135    7471.1142    2965.5652    5398.3997    3914.5885   -748.85236    226.24393    377.10101   -3099.1663 
 1842000    253.60403   -3931.0664   -3496.3978   -3931.0664            0    3988.8758    17.309039    20.387762    21.116987    7452.0279    3167.1943    5918.7988    2880.6345     920.6618     1045.882   -264.80026    -3062.886 
 1843000    239.41223   -3930.4863    -3520.142   -3930.4863            0    4184.3647    17.305992    20.384173     21.11327    7448.0933    4936.1207    4174.8208    3442.1526   -1392.8438   -609.66619   -789.72593   -3065.6245 
 1844000    236.71461   -3935.5336   -3529.8129   -3935.5336            0    3818.6207    17.294207    20.370291    21.098892    7432.8873    4166.3428    3262.7296    4026.7898    57.507798   -109.51625   -829.51308   -3115.8704 
 1845000    240.57739   -3929.7108   -3517.3694   -3929.7108            0    4763.4264    17.211388    20.272741    20.997853    7326.6129    4017.1202    5081.3267    5191.8322   -1163.9552   -982.89107    852.59255   -3008.3919 
 1846000    254.93114   -3942.8403    -3505.897   -3942.8403            0    4243.0873    17.331944    20.414741    21.144932    7481.6511     4811.577    5278.9215    2638.7635    90.891977    395.05216    569.14952   -3042.9244 
 1847000    242.24002   -3921.9203   -3506.7292   -3921.9203            0    4991.8021    17.315663    20.395564    21.125069    7460.5869    5096.0043    5032.6558    4846.7462    243.78353   -508.66813    49.646317   -2963.5961 
 1848000    246.85591   -3952.9116   -3529.8091   -3952.9116            0    3846.9009    17.330115    20.412586      21.1427    7479.2822    2212.2062    3702.5984    5625.8981    673.96523   -817.14641    653.96828   -3110.1981 
 1849000    253.15648   -3940.3496   -3506.4481   -3940.3496            0    5490.6478     17.27849    20.351778    21.079717    7412.6402    4959.4788    5699.3453    5813.1194    354.35281    1109.1501    1046.7455   -2912.8774 
 1850000    241.67557   -3931.6049   -3517.3812   -3931.6049            0    3816.3984    17.260165    20.330195    21.057361    7389.0811    4464.0662    3352.7281    3632.4008    5.5891362   -203.90544   -714.04993   -3106.1178 
 1851000    240.26569   -3959.6917   -3547.8846   -3959.6917            0    5331.2274    17.206079    20.266488    20.991376    7319.8355     5452.503    4854.1067    5687.0723     1329.466     970.0463   -98.865168   -2978.7638 
 1852000      254.576    -3950.279   -3513.9445    -3950.279            0    3852.3904    17.252009    20.320588     21.04741    7378.6107     4319.705    4643.2405    2594.2256   -1145.5108   -404.16652   -35.629193   -3099.3908 
 1853000    246.17348   -3945.7413   -3523.8083   -3945.7413            0    3635.5394      17.3193    20.399848    21.129506    7465.2889    3994.8004    3403.1957    3508.6222   -245.48445   -984.57812   -125.20175   -3127.9941 
 1854000    241.17228   -3942.0816   -3528.7206   -3942.0816            0    5354.2455    17.254962    20.324066    21.051013    7382.4003     5062.122    5396.2742    5604.3401   -1053.0299   -1300.7643    1779.1298   -2952.2571 
 1855000    263.78872   -3954.0016   -3501.8767   -3954.0016            0    2793.4799    17.308569    20.387208    21.116414     7451.421    4377.8979    2387.9102    1614.6316   -1075.7755    424.81909   -349.70914   -3198.3055 
 1856000    237.38852   -3951.3008    -3544.425   -3951.3008            0    4134.4447    17.261106    20.331303    21.058509    7390.2897    2830.0878    4225.0348    5348.2115   -899.86738   -646.52598    521.44658   -3098.8154 
 1857000    242.37504   -3968.6693   -3553.2468   -3968.6693            0    3879.2274    17.262495    20.332939    21.060204    7392.0742    3314.9622    3772.2593    4550.4608   -1373.8997    174.45568    1108.5033   -3135.0435 
 1858000    242.79405   -3923.9917    -3507.851   -3923.9917            0     4792.412    17.279701    20.353206    21.081195    7414.1997    5080.5394    5140.1896    4156.5068   -579.36945    182.53692    155.19472   -2989.6547 
 1859000    244.61016   -3949.0629   -3529.8095   -3949.0629            0    4626.4361    17.252069    20.320659    21.047484    7378.6882    4567.1115     5427.058    3885.1387   -902.09781    1344.4106    255.31822   -3031.9559 
 1860000    241.91083   -3936.3733   -3521.7464   -3936.3733            0    2581.5063    17.326264     20.40805    21.138001    7474.2971    3789.8701    2333.0697    1621.5792   -394.76929    552.70108   -436.59323   -3240.3494 
 1861000    245.44646   -3923.7871   -3503.1003   -3923.7871            0    2540.6012    17.323581    20.404891    21.134729    7470.8262    3909.0258    2393.3648    1319.4131     55.75261   -750.53406   -662.84819   -3226.2907 
 1862000    253.54694   -3953.7396   -3519.1688   -3953.7396            0    5399.0072    17.257794    20.327402    21.054468    7386.0362    4627.3609    5718.6858     5850.975   -893.14707   -1271.5459    39.102444   -2937.5998 
 1863000    237.07024   -3925.2878   -3518.9575   -3925.2878            0    4647.3026    17.273672    20.346104     21.07384    7406.4416    4559.5359    3793.5717    5588.8004    -720.3361   -187.94325   -758.41914   -3016.9775 
 1864000    250.55356   -3917.0933    -3487.653   -3917.0933            0    3680.7258    17.332902     20.41587      21.1461    7482.8917    4766.3782    1596.5431     4679.256    792.34659   -255.85896   -737.94661   -3085.9743 
 1865000    249.81863   -3929.6082   -3501.4276   -3929.6082            0    4072.8671    17.300116    20.377252    21.106101     7440.509    3181.8762    4325.4006    4711.3245    2706.8296   -414.26735   -720.43396   -3059.4719 
 1866000    235.52891   -3960.5868   -3556.8983   -3960.5868            0    5929.1733    17.254004    20.322937    21.049844    7381.1705    6393.8404    5825.3471    5568.3324    440.62864    670.86984   -239.36003   -2918.6417 
 1867000    230.04507   -3979.0066   -3584.7172   -3979.0066            0     5989.832    17.295744    20.372102    21.100768    7434.8698    6130.8414    6798.4363    5040.2183    1250.0015   -714.90898    121.88126     -2935.24 
 1868000    230.74367     -3949.52   -3554.0333     -3949.52            0    2821.8942    17.396473    20.490748    21.223657    7565.5278    2585.5404    3416.1958    2463.9465    264.41464   -766.47685   -123.90844   -3242.6783 
 1869000    249.11043   -3941.6407    -3514.674   -3941.6407            0    4558.1221     17.32737    20.409354    21.139351    7475.7293    4097.1242    6862.3197    2714.9223    1708.7752   -1563.8897   -1413.7418   -3017.7208 
 1870000    246.00325   -3949.8448   -3528.2036   -3949.8448            0    4879.3874    17.308472    20.387094    21.116296    7451.2956    5560.8463    3820.5328    5256.7831    2434.6754   -540.53398   -935.34736    -2997.963 
 1871000    245.55996   -3952.0859   -3531.2045   -3952.0859            0    6328.4957    17.264548    20.335357    21.062708     7394.711    6993.7545    5298.7663    6692.9664    672.65788    2336.9245    904.11997   -2848.7125 
 1872000    252.76687   -3923.9288    -3490.695   -3923.9288            0    5364.4829    17.303784    20.381572    21.110576    7445.2421    5443.7766    6072.0115    4577.6607     26.27029   -1486.9935    15.175645   -2908.2129 
 1873000    234.52865   -3938.4189   -3536.4448   -3938.4189            0    5911.7265    17.237747    20.303789    21.030011    7360.3264    6450.4982    7132.2025    4152.4786    76.428397   -923.66223   -974.38496   -2901.8635 
 1874000    245.61473   -3891.3432   -3470.3679   -3891.3432            0    3830.4017    17.297115    20.373717     21.10244     7436.638    2745.6118    5296.6253     3448.968   -1124.3987    688.53571    -139.8206   -3054.9389 
 1875000    261.16328   -3906.2834   -3458.6584   -3906.2834            0    4544.4553    17.317828    20.398114     21.12771    7463.3851    5805.0267    3762.7316    4065.6075    -1159.548     241.0271   -765.85172   -2964.0135 
 1876000    256.10949    -3924.332   -3485.3691    -3924.332            0    5399.1294    17.317118    20.397278    21.126844    7462.4673     5094.718     5474.335    5628.3351    447.98113   -610.33415   -536.58221   -2897.7687 
 1877000    244.66468   -3906.5307   -3487.1838   -3906.5307            0    6074.8438    17.326963    20.408873    21.138854    7475.2014    6561.1574    4085.2321     7578.142   -398.84727   -34.434961    530.96385   -2824.9156 
 1878000    239.01403   -3903.2868   -3493.6249   -3903.2868            0    4509.6879    17.334415    20.417651    21.147945    7484.8505    5448.3545     4224.348    3856.3612    1207.9195   -364.22798    624.49005   -3001.3525 
 1879000    260.73171   -3925.1482    -3478.263   -3925.1482            0    5657.0173    17.313327    20.392812    21.122218    7457.5671    5238.9481     5739.014    5993.0899    518.83542   -144.74651    162.30272   -2863.0003 
 1880000    234.02216   -3957.5374   -3556.4314   -3957.5374            0    3837.2945    17.435151    20.536305    21.270843    7616.1012    3222.9024    5009.7692     3279.212    1134.2736   -789.41905   -156.82845   -3130.2115 
 1881000    252.85485   -3981.0044   -3547.6198   -3981.0044            0    3997.6025    17.343027    20.427795    21.158452    7496.0122    4218.5361    2875.5168    4898.7545    963.73911   -1556.1751   -487.26578   -3110.5953 
 1882000    248.75082   -3925.7931   -3499.4427   -3925.7931            0    3632.2678    17.433391    20.534232    21.268696    7613.7952    4658.8245    2602.7228    3635.2561   -412.75121    -183.5699    263.76717   -3096.1179 
 1883000    244.10661   -3955.8706   -3537.4803   -3955.8706            0    3441.8409    17.313596    20.393129    21.122546    7457.9146    4127.0211    3923.9505    2274.5512   -490.24363    1241.9507    807.22817   -3163.1249 
 1884000    230.76994   -3956.6322   -3561.1004   -3956.6322            0     4940.914    17.340688     20.42504    21.155599    7492.9798    5182.5496     4722.706    4917.4863   -745.21633    1625.6749   -761.54972   -3021.1701 
 1885000    236.06731   -3964.3242   -3559.7129   -3964.3242            0     1456.522    17.398442    20.493067    21.226059    7568.0967    1890.7316    1041.3854    1437.4491    830.79979    158.10244   -142.62913   -3398.9523 
 1886000    244.76761   -3933.0818   -3513.5585   -3933.0818            0    3458.3246    17.404216    20.499867    21.233103    7575.6337    3647.1769    1733.5076    4994.2894    239.88902   -78.616295   -401.68477   -3131.4729 
 1887000    236.86026   -3951.4982   -3545.5278   -3951.4982            0    5381.7432    17.356095    20.443187    21.174395    7512.9693    7246.0264    3584.3777    5314.8257   -610.93829   -2625.0291   -51.750477   -2955.8558 
 1888000    246.65475   -3934.0478     -3511.29   -3934.0478            0    4306.0152    17.368289    20.457551    21.189272    7528.8166    4244.8526    4225.7589    4447.4342    28.355023    172.61497    1272.7954   -3038.4892 
 1889000      235.653   -3972.2694   -3568.3682   -3972.2694            0    2573.7332    17.359406    20.447087    21.178434    7517.2701    3431.5647     1184.487     3105.148   -970.25861    1574.0091    152.14569   -3286.2055 
 1890000    236.15893    -3927.336   -3522.5677    -3927.336            0    2971.2535    17.400236    20.495179    21.228247    7570.4374    3412.0265    2290.5003    3211.2337   -1667.9154    1291.1356   -1992.7564   -3194.5203 
 1891000    244.87634   -3971.0135   -3551.3039   -3971.0135            0    5205.5444    17.255651    20.324878    21.051854    7383.2853    5265.8293    6456.9676    3893.8363    455.35257    1645.5188   -305.19129   -2990.7831 
 1892000    237.81059   -3940.6439   -3533.0447   -3940.6439            0    5231.9557     17.27119    20.343181    21.070812    7403.2494    4878.7028    5166.9744      5650.19   -446.06348    1900.4417    -145.3498   -2968.1567 
 1893000    230.29645   -3919.1037   -3524.3835   -3919.1037            0    4612.0752    17.257757    20.327358    21.054423    7385.9882    6376.7032    5337.4215    2122.1011    499.52937    486.50327   -258.94799   -3027.5843 
 1894000    235.87789   -3925.6264   -3521.3398   -3925.6264            0     3717.462    17.258388    20.328102    21.055193    7386.7992    3120.8242    6082.8401    1948.7218    457.21083   -255.63354   -24.867144   -3120.8617 
 1895000    246.86876   -3923.6068   -3500.4821   -3923.6068            0    4077.4771    17.279048    20.352436    21.080399    7413.3592    5579.2989    3398.9597    3254.1727    450.18664    1989.1465   -54.600334   -3059.6406 
 1896000    231.54202   -3931.4858   -3534.6306   -3931.4858            0    5219.2193    17.259974    20.329969    21.057128    7388.8351    6335.6494    3094.7884    6227.2201    1038.2214    1435.7849    655.73539    -2972.215 
 1897000    228.82729   -3952.2897   -3560.0875   -3952.2897            0    5017.8073    17.262329    20.332743        21.06    7391.8598     4806.645    5867.3354    4379.4414    1634.8605    622.95763    -137.0565   -3019.1544 
 1898000    227.38842   -3946.7206   -3556.9846   -3946.7206            0    4708.5613    17.264469    20.335264    21.062612    7394.6099    4492.0146    5446.1081    4187.5613   -1177.9626    245.32558   -62.537065   -3049.2002 
 1899000    253.51709   -3928.7618   -3494.2422   -3928.7618            0    3612.6615    17.338748    20.422755    21.153232    7490.4649    6048.2226    2264.8517    2524.9102   -32.898891   -489.70437    1701.8606   -3099.5923 
 1900000    243.72515   -3957.0032   -3539.2666   -3957.0032            0    3997.4968    17.374236    20.464555    21.196527    7536.5526    4940.2867    3108.6642    3943.5395    92.642416     1294.386    1822.1595   -3099.8902 
 1901000    256.97377   -3939.6296   -3499.1854   -3939.6296            0    4752.7854    17.346188    20.431518    21.162308    7500.1113    3937.5026    6033.2106     4287.643   -1505.1481   -440.33012     712.7227   -2979.3189 
 1902000    233.53801   -3961.4236   -3561.1475   -3961.4236            0    3676.7976    17.357341    20.444655    21.175916    7514.5884    4050.8695    4208.6768    2770.8464   -732.91213     1669.467    1513.6555   -3158.1978 
 1903000    243.20225   -3919.8457   -3503.0053   -3919.8457            0    4738.1407    17.311331    20.390461    21.119784    7454.9885    4360.9622    3555.6855    6297.7743   -558.99474    745.05943   -1325.3165   -2987.8588 
 1904000    230.31164   -3943.5185   -3548.7723   -3943.5185            0    3433.7338    17.390231    20.483395    21.216042     7557.387    2796.9915    4274.4585    3229.7515   -945.55255   -1277.4773   -209.05076   -3170.3173 
 1905000    240.91475   -3944.9357   -3532.0161   -3944.9357            0    4937.3598    17.321356    20.402269    21.132013     7467.947    2454.1189    6027.3995    6330.5611   -880.17105   -141.58303   -1649.7572   -2994.2766 
 1906000    230.64244   -3978.7043   -3583.3911   -3978.7043            0    3931.3693    17.379851    20.471168    21.203377    7543.8615    4907.7597    3065.3907    3820.9575    302.02496   -232.33782   -679.51316   -3150.8639 
 1907000    244.68065    -3955.118   -3535.7438    -3955.118            0    5971.4934    17.317828    20.398114     21.12771    7463.3853    3680.5874    7399.2743    6834.6184   -1480.0638    305.59116    592.51449   -2885.7717 
 1908000    242.91728   -3947.1374   -3530.7855   -3947.1374            0    4520.4236    17.354856    20.441728    21.172884    7511.3614    4012.8554     4569.631    4978.7844    230.19174    620.24624   -546.04723   -3035.5934 
 1909000    231.70806   -3927.7812   -3530.6416   -3927.7812            0    4342.9587    17.405642    20.501548    21.234843    7577.4967    4417.6427    4686.6368    3924.5965   -357.54919   -145.81463    1193.5366   -3050.7011 
 1910000    250.75826   -3915.5774   -3485.7863   -3915.5774            0    3496.3594    17.378305    20.469347    21.201491    7541.8485    3918.0403    1920.6562    4650.3817    663.35483   -22.712924   -687.86394   -3101.2213 
 1911000    236.18777    -3954.024   -3549.2063    -3954.024            0    4447.9782    17.321968     20.40299     21.13276    7468.7388    3462.3572    3872.4016    6009.1756   -667.54478   -515.44875   -1058.9245   -3064.7152 
 1912000    236.41957   -3950.3185   -3545.1034   -3950.3185            0    2859.7403    17.396466    20.490739    21.223648    7565.5181    3465.9195     3226.571    1886.7303   -828.76683   -238.50605     105.4891   -3229.5731 
 1913000    249.75854   -3956.7121   -3528.6345   -3956.7121            0    4486.4796    17.380425    20.471845    21.204078    7544.6095    3897.8936    5750.8593    3810.6858    394.77948    650.56219    351.90385   -3034.9854 
 1914000    235.60905   -3947.0785   -3543.2527   -3947.0785            0    5486.5296    17.383276    20.475203    21.207557    7548.3233    5674.6622    5394.7422    5390.1845   -1477.4327   -185.59034   -312.51472   -2939.2705 
 1915000    240.37819   -3945.6515   -3533.6515   -3945.6515            0    4730.6929    17.325146    20.406733    21.136637      7472.85    5632.5416    3427.5893    5131.9479    -250.5461    377.11474   -527.09208   -3018.0824 
 1916000    250.40201   -3946.5557   -3517.3752   -3946.5557            0    3196.5828    17.396364    20.490619    21.223524    7565.3855    3318.3716    2084.6235    4186.7533    -187.4108    260.11192   -263.78106   -3164.6854 
 1917000     238.1086   -3984.4428   -3576.3328   -3984.4428            0    4168.4504    17.358253     20.44573    21.177029    7515.7732    5224.8457    4193.0351    3087.4705   -123.11884    650.81468    397.57655   -3119.4296 
 1918000    258.94665   -3942.5611   -3498.7354   -3942.5611            0    3832.2415    17.416515    20.514354    21.248107    7591.7055    4813.0657    3684.5046    2999.1542   -933.49883    357.36221    208.25174   -3074.4402 
 1919000    251.59307   -3951.0947   -3519.8728   -3951.0947            0    4551.8938    17.406336    20.502364    21.235689    7578.4022    4736.9411    3797.8545    5120.8857   -935.68843    226.81262   -243.77248   -3016.7828 
 1920000     243.8303   -3967.8691   -3549.9523   -3967.8691            0    4148.9927     17.41886    20.517116    21.250968    7594.7723    4443.6219    1741.4468    6261.9093   -1100.4006   -1158.1527   -766.14538   -3090.4017 
 1921000    231.27893   -3929.0457   -3532.6415   -3929.0457            0    4119.6972    17.341803    20.426353    21.156959    7494.4255     5141.018    4394.8172    2823.2563    976.83131   -1481.1343    -352.6449   -3082.3647 
 1922000    241.27418   -3948.7312   -3535.1955   -3948.7312            0    3987.0185     17.38198    20.473676    21.205975    7546.6342      3897.57    3843.6178    4219.8676    1418.1508    260.87114   -284.74248   -3096.3846 
 1923000    231.25359   -3915.7943   -3519.4335   -3915.7943            0    4843.8493    17.327145    20.409088    21.139077    7475.4379    5376.6205    3564.0253    5590.9022    1115.7191    2459.1732    990.41849   -2991.3493 
 1924000    234.04538   -3927.3059   -3526.1601   -3927.3059            0    4122.8829    17.328475    20.410655    21.140699    7477.1592    3091.2508    5251.4297    4025.9681    1117.8875   -1424.4756   -758.34032   -3076.5734 
 1925000    243.50858   -3929.0938   -3511.7284   -3929.0938            0    4551.7045    17.303676    20.381445    21.110444    7445.1031     4436.784     5779.396    3438.9335    532.27266    -459.6544   -935.56704    -3017.508 
 1926000    235.88666   -3960.2972   -3555.9955   -3960.2972            0    2777.4691    17.377042     20.46786    21.199951    7540.2047    3436.9828    1610.0628    3285.3617    214.28493    -583.5209   -661.20868   -3250.5679 
 1927000    247.72023   -3936.6952   -3512.1112   -3936.6952            0    4224.9748    17.310776    20.389808    21.119106    7454.2716    3169.9399    5078.4935    4426.4909   -659.78675    72.268876   -801.78574   -3052.8019 
 1928000    239.64224   -3919.3376    -3508.599   -3919.3376            0    4473.4109     17.31428    20.393935    21.123382    7458.7995    3583.8331    5416.2369    4420.1628   -1510.0179    228.33202    1212.2884   -3021.9861 
 1929000    243.42087   -3963.4689   -3546.2538   -3963.4689            0    3698.7921    17.389157     20.48213    21.214731    7555.9868     4137.613    4753.7137    2205.0495   -1595.2365   -1314.0119    87.349133   -3138.6606 
 1930000    231.00472   -3924.2361   -3528.3019   -3924.2361            0    5299.9533    17.291753    20.367402    21.095899    7429.7242    4236.7663    5749.2933    5913.8003   -42.296882   -1889.5016    -790.0035   -2954.0259 
 1931000    240.24598   -3912.7808   -3501.0075   -3912.7808            0     4123.301    17.343985    20.428924    21.159622    7497.2549    4426.4885    4243.1061    3700.3085    646.22831    1078.5023    433.68849   -3050.1667 
 1932000    250.66983   -3928.9807   -3499.3412   -3928.9807            0    4320.8281    17.321925    20.402939    21.132708    7468.6831    3608.8774    3686.9151    5666.6919    192.57126   -723.38378     198.9119   -3028.7032 
 1933000    230.07172   -3927.2649   -3532.9298   -3927.2649            0    4598.2963    17.299461     20.37648    21.105302    7439.6642    5461.4423    3011.8378    5321.6087    193.43603    60.204146   -239.34103   -3034.0152 
 1934000     243.4105   -3968.8196   -3551.6223   -3968.8196            0    4132.7784    17.308467    20.387088    21.116289    7451.2886    2506.2634    4419.8948    5472.1771    643.60507   -105.32138     670.4427   -3102.5158 
 1935000    247.37706   -3950.7636   -3526.7678   -3950.7636            0    3790.1858    17.411781    20.508779    21.242333    7585.5174    3913.8481    3430.8223    4025.8872    186.94319    988.31247     115.6658   -3107.4709 
 1936000    247.92787   -3904.9974   -3480.0575   -3904.9974            0    5489.8627    17.241559    20.308279    21.034662    7365.2112    5579.4137    4472.3272    6417.8471    2136.9603    1867.9535   -379.56418   -2890.3691 
 1937000    233.33314   -3938.2104   -3538.2854   -3938.2104            0    2333.6148    17.364483    20.453067    21.184628    7523.8673    1610.4993    3384.5815    2005.7637    683.66911   -739.17624   -859.09729   -3282.2228 
 1938000    255.39679   -3938.1043   -3500.3629   -3938.1043            0    5634.4161    17.289845    20.365154    21.093571    7427.2645    5181.9127    6457.4606     5263.875    225.61357    1133.5285    288.92768   -2890.0484 
 1939000    244.28488   -3976.8291   -3558.1331   -3976.8291            0    4609.3287    17.338404    20.422349    21.152812    7490.0188    3643.9505    7761.9134    2422.1222    281.08528     662.7786   -837.92202   -3054.6366 
 1940000    254.49874   -3926.2544   -3490.0523   -3926.2544            0    5714.6384    17.322991    20.404195    21.134008    7470.0621    6735.3308    6042.4511    4366.1333   -1304.7655   -214.66522    324.53052   -2867.4813 
 1941000    250.47941   -3938.4258   -3509.1127   -3938.4258            0    7008.4928    17.349014    20.434847    21.165757    7503.7784    7631.0553    6682.1523    6712.2707    394.22527   -580.87058   -532.33343   -2742.1389 
 1942000    239.82043   -3931.6182   -3520.5742   -3931.6182            0    4207.7763    17.364184    20.452715    21.184264    7523.4788    3387.0614     5194.778    4041.4896   -1047.5014    1177.7443    915.33471   -3058.8876 
 1943000    243.94347   -3954.6055   -3536.4948   -3954.6055            0    3647.5199    17.415634    20.513317    21.247033    7590.5541    4541.8447     3744.859     2655.856   -1382.8237   -25.393703    557.56749   -3132.7127 
 1944000    261.19293   -3953.1273   -3505.4516   -3953.1273            0    5829.7734    17.302181    20.379684     21.10862    7443.1733    7027.7512    5900.2936    4561.2755   -5.1323814  -0.88212809    680.94696   -2872.6235 
 1945000    234.36927   -3940.5686   -3538.8677   -3940.5686            0    3396.7947    17.394112    20.487967    21.220776    7562.4478    4240.2319    3852.2675    2097.8848   -376.37312   -773.01152    504.85425   -3164.2334 
 1946000     246.9611   -3945.5499    -3522.267   -3945.5499            0    3489.0978    17.351765    20.438087    21.169113    7507.3482    3155.1203    3279.1955    4032.9777   -1080.1335    292.96339    841.00961   -3140.2562 
 1947000    249.06507   -3956.1349   -3529.2459   -3956.1349            0    4754.1282    17.273824    20.346283    21.074025    7406.6368    4447.8835    4230.8126    5583.6885    121.59856    1153.3562   -780.14079   -3015.7136 
 1948000    246.48445   -3957.9238   -3535.4579   -3957.9238            0    3136.0532    17.399043    20.493774    21.226791    7568.8806    2110.1524    4866.6811    2431.3261   -453.47098   -168.67449    854.12801   -3189.2866 
 1949000    253.15934   -3935.9742   -3502.0677   -3935.9742            0    6662.9762    17.310895    20.389947    21.119251    7454.4245    6576.2071    8160.0931    5252.6283    -400.8403    1643.1657   -314.49405   -2777.7014 
 1950000    242.28021   -3943.2528   -3527.9928   -3943.2528            0    3793.8851    17.392024    20.485506    21.218228    7559.7239    3187.4299    5517.1531    2677.0722   -580.44894   -1027.8402   -486.58381   -3109.7139 
 1951000    243.66489   -3949.3424   -3531.7091   -3949.3424            0    6633.5232    17.338384    20.422326    21.152788    7489.9932    7081.6428    7611.1484    5207.7785   -649.12331    1364.5737    569.02511   -2807.1037 
 1952000    245.84268   -3941.4074   -3520.0415   -3941.4074            0    4744.0982    17.455109    20.559813    21.295193    7642.2866    6691.8959    4294.2964    3246.1022    663.68115    1406.9753    -460.4736   -2991.2884 
 1953000    240.38407   -3976.8498   -3564.8397   -3976.8498            0    2358.3548    17.457904    20.563104    21.298602    7645.9571    2114.3089    3048.5963    1912.1593   -1122.4314      254.669    115.57816   -3301.8633 
 1954000    242.81523   -3971.8936   -3555.7166   -3971.8936            0    5035.8732    17.351531    20.437811    21.168827    7507.0441    4047.4274    5905.0175    5155.1748    2.9660876    569.06185     525.6473   -3004.3764 
 1955000    236.10754   -3976.8151   -3572.1349   -3976.8151            0    4801.5384    17.387516    20.480198    21.212729     7553.848    3491.8827    4511.9551    6400.7775   -439.17523   -933.89993    741.17657   -3043.1728 
 1956000    245.53851     -3988.32   -3567.4754     -3988.32            0    3120.9691    17.377777    20.468726    21.200847    7541.1618    1625.9804     4731.203     3005.724   -407.96569    473.84313    353.99715   -3224.2309 
 1957000    235.22675   -3955.7616    -3552.591   -3955.7616            0      2909.33    17.437527    20.539103    21.273742    7619.2157    2024.0336    1973.3237    4730.6326   -159.11375    -258.8487     312.2352   -3229.3108 
 1958000    250.47374    -3957.322   -3528.0186    -3957.322            0    2861.5883    17.336747    20.420398     21.15079    7487.8717    3896.9447    1505.4191    3182.4009    349.57213     1256.732   -337.26326   -3215.5248 
 1959000     241.7965    -3950.086   -3535.6551    -3950.086            0    4347.0198    17.309551    20.388365    21.117612    7452.6892    4792.1066     4587.247    3661.7057    33.249899   -106.05556    1546.6253   -3063.1783 
 1960000    252.23896    -3926.341    -3494.012    -3926.341            0    5652.9701    17.273157    20.345498    21.073211    7405.7793    6165.1482    6112.9827    4680.7794    463.40246    788.36778   -752.03205   -2883.4591 
 1961000    243.60788   -3946.1769   -3528.6413   -3946.1769            0    2743.9518    17.375687    20.466264    21.198297    7538.4405    4196.3814    2278.3911    1757.0829   -51.355222    1.9740295   -557.63797   -3226.9701 
 1962000    247.26765   -3934.6489   -3510.8406   -3934.6489            0    3601.6996    17.337718    20.421542    21.151976    7489.1308    3948.5514    4312.3822    2544.1652   -1016.4318    1111.8013    1290.0645   -3117.4583 
 1963000     259.2381   -3920.6185   -3476.2933   -3920.6185            0    4361.2752    17.325009    20.406573    21.136471    7472.6738    4344.2735    4483.9506    4255.6013   -344.97454   -262.01844   -1745.5768   -3000.9959 
 1964000     238.7317   -3925.5037   -3516.3258   -3925.5037            0    5273.4218    17.326914    20.408816    21.138795    7475.1388    5357.0077    5504.3506    4958.9071    1214.4722   -1221.1647   -51.496912   -2941.4319 
 1965000    231.98236   -3970.0973   -3572.4874   -3970.0973            0    3969.8559    17.337076    20.420785    21.151192    7488.2984     3870.873    4290.9468     3747.748   -1948.7882    666.23364    830.49827   -3138.9428 
 1966000    240.67061   -3949.1268   -3536.6256   -3949.1268            0     3640.772    17.314788    20.394533    21.124001    7459.4552    3094.1273    2535.4565    5292.7321      718.176   -178.64478   -1238.3218   -3140.5515 
 1967000    234.57444   -3960.5399   -3558.4874   -3960.5399            0    4936.1206    17.329902    20.412336    21.142441    7479.0071    5658.0564    4796.8857    4353.4196   -1233.7869    -817.7443    397.52817   -3020.0867 
 1968000    260.24823   -3956.3641   -3510.3075   -3956.3641            0    5670.2325    17.292575    20.368369    21.096901    7430.7827    4539.9262     7838.431    4632.3404   -611.02033    756.50843    599.34724   -2895.8224 
 1969000    242.13607   -3924.7133   -3509.7004   -3924.7133            0    2751.0049      17.3923    20.485832    21.218565    7560.0838    2480.5522    1019.9538    4752.5088   -233.04779    307.83979    594.74797   -3206.3854 
 1970000     230.2534   -3943.9944    -3549.348   -3943.9944            0    4025.5506    17.322043    20.403079    21.132852    7468.8365    4368.7749    4436.7184    3271.1585    733.36729   -124.10665     52.35316   -3110.8636 
 1971000    242.01425   -3932.1244   -3517.3202   -3932.1244            0    3778.6265    17.356677    20.443873    21.175105    7513.7253    3571.8985    3261.2777    4502.7032   -205.19867    128.16858    580.27387   -3103.2584 
 1972000    228.17972   -3932.9851   -3541.8928   -3932.9851            0    3610.4444    17.346962    20.432429    21.163253    7501.1152    3457.3407    2497.4886     4876.504   -1436.6274   -280.21206   -294.60265   -3146.9244 
 1973000    232.57089   -3940.5533   -3541.9347   -3940.5533            0    3756.1068    17.419534     20.51791    21.251791    7595.6545    2770.2695    6319.9885    2178.0624    -362.0495    1054.3815   -62.358892   -3125.8526 
 1974000    239.77551   -3942.2117   -3531.2447   -3942.2117            0    3712.7416    17.374867    20.465298    21.197297    7537.3735    3672.1414    3942.2545    3523.8289   -708.83573   -564.15755   -106.07826   -3123.1221 
 1975000    243.19341   -3955.0782    -3538.253   -3955.0782            0    4485.6261    17.339225    20.423317    21.153814    7491.0836     3983.954    5875.2328    3597.6914     74.28977   -155.64102   -421.68671   -3048.1994 
 1976000    255.17035   -3957.8227   -3520.4694   -3957.8227            0    4913.4077    17.342813    20.427542    21.158191    7495.7343    4781.6693    5568.1546    4390.3991   -699.14401   -398.12394      625.709   -2983.3475 
 1977000    250.76235   -3902.2723   -3472.4742   -3902.2723            0    4937.2069    17.396378    20.490635     21.22354     7565.403    5196.9297    5291.1821    4323.5089    714.55286    172.36771   -25.841583   -2927.7342 
 1978000    254.05204   -3930.4863   -3495.0498   -3930.4863            0     5202.414    17.315227     20.39505    21.124537    7460.0231    6754.5805    4391.2981    4461.3634     406.9728   -424.07207    913.54452   -2929.0439 
 1979000    243.23778   -3918.5442    -3501.643   -3918.5442            0    4060.9574    17.403714    20.499277    21.232491    7574.9791    3988.9993    4260.2088    3933.6641    -155.8743    642.11152   -866.92685   -3053.0156 
 1980000    250.76718   -3942.5067   -3512.7003   -3942.5067            0    4167.4816    17.360655    20.448559    21.179959    7518.8937     4666.596    3625.6282    4210.2205    724.89074    272.42477   -719.13363   -3055.7137 
 1981000    247.35249   -3933.9816   -3510.0278   -3933.9816            0    6358.0106    17.340832     20.42521    21.155775    7493.1671    6528.0681    5361.8924    7184.0715    -46.57224   -1158.2907   -215.97051   -2815.2235 
 1982000    247.85695   -3955.3682   -3530.5498   -3955.3682            0    3927.7765    17.360685    20.448593    21.179995    7518.9318    4517.4835    2656.9449    4608.9011    1086.3509   -831.03267    756.85028   -3099.8459 
 1983000      243.207    -3956.632   -3539.7835    -3956.632            0    3507.0945    17.361883    20.450005    21.181457    7520.4886    3750.7516    2827.1614    3943.3705   -227.74234    702.37437   -450.70217   -3155.1303 
 1984000    251.45875     -3951.51   -3520.5183     -3951.51            0    5643.1349    17.253037    20.321799    21.048665    7379.9304    5399.5445    6446.1866    5083.6736   -675.86468    239.30831   -1352.1371    -2913.155 
 1985000    231.80068   -3947.5432   -3550.2448   -3947.5432            0    5067.1915    17.271523    20.343572    21.071217    7403.6771    4730.1838    5020.2415    5451.1492   -388.51896   -611.55489    1445.5027   -3003.1146 
 1986000    245.32019   -3949.4192   -3528.9488   -3949.4192            0    4768.4623    17.275219    20.347926    21.075726     7408.431    5478.3207     4694.981    4132.0852   -859.30948    918.93258    25.761631   -3013.7433 
 1987000    243.61646   -3951.6093    -3534.059   -3951.6093            0    3344.2472     17.32977     20.41218    21.142279    7478.8354    4635.2588     2911.533    2485.9499   -288.19336   -837.36126    1143.6332   -3169.2981 
 1988000    251.65626   -3937.6653   -3506.3351   -3937.6653            0    5143.2547    17.287387    20.362259    21.090572    7424.0979    4512.1419    4750.9175    6166.7048    517.07657    227.91032    367.28101   -2949.4602 
 1989000    241.11494   -3945.8763   -3532.6136   -3945.8763            0    4676.3401     17.34012    20.424371    21.154906     7492.244    5269.6131     4460.967    4298.4402    1088.4783    844.02055    495.04999   -3021.6454 
 1990000    241.45058   -3923.1491   -3509.3111   -3923.1491            0    5398.6207    17.243818    20.310939    21.037417    7368.1057    6675.1013    3999.2685    5521.4923    -600.2121   -1255.1253    425.93294   -2929.1954 
 1991000    228.86234   -3931.0043   -3538.7421   -3931.0043            0    5246.7743    17.257503    20.327059    21.054113    7385.6622    4875.6734    5952.7613     4911.888    670.49727    112.54141   -666.75671   -2973.5999 
 1992000    234.42807     -3913.46   -3511.6583     -3913.46            0    3962.2991    17.328629    20.410836    21.140886    7477.3579    3934.9762    2907.5649    5044.3561   -751.12792    -1211.293    125.37169   -3079.5712 
 1993000    250.69952   -3922.2646   -3492.5742   -3922.2646            0    2557.2684    17.271461    20.343499    21.071142    7403.5975    2202.9516    3673.3427     1795.511   -1550.6857   -266.36619    -2274.553   -3216.4561 
 1994000    250.48908   -3919.0676   -3489.7378   -3919.0676            0    4879.5725    17.256909    20.326359    21.053388    7384.8997    3929.1746    4401.6161    6307.9267    594.83405   -153.87877    1284.0624   -2964.2021 
 1995000    244.54485   -3916.5353   -3497.3938   -3916.5353            0    3904.5066    17.341975    20.426555    21.157168    7494.6477    4233.8649    3201.7985    4277.8563     49.48292   -1202.1153    529.54748   -3070.6244 
 1996000    240.04447    -3911.479    -3500.051    -3911.479            0    2258.0528    17.414214    20.511644      21.2453    7588.6971    812.28902    4563.7758    1398.0936   -720.50742   -470.22747    545.06493   -3250.1447 
 1997000    236.34864   -3924.4546   -3519.3611   -3924.4546            0    4038.2417     17.32904    20.411321    21.141389     7477.891    2284.0325    5229.7505     4600.942    59.307234   -810.99773    150.96416   -3078.9611 
 1998000    248.43925   -3928.1437   -3502.3273   -3928.1437            0    5305.8329    17.270503    20.342371    21.069973    7402.3655    3215.7442    7899.7988    4801.9556    355.93038    723.45003    2019.9773   -2929.5313 
 1999000    234.65417   -3955.9573   -3553.7681   -3955.9573            0    3477.1825    17.324741    20.406257    21.136144     7472.327    4851.8056    2869.8111    2709.9309    2360.9972    852.62622    306.53838   -3174.8379 
 2000000    253.73114   -3916.7928   -3481.9063   -3916.7928            0     5534.608    17.199845    20.259145     20.98377     7311.882      4814.93    4899.2316    6889.6624    1183.1274    666.54309   -77.656729   -2891.7162 
Loop time of 437.813 on 64 procs for 250000 steps with 864 atoms

Performance: 98.672 ns/day, 0.243 hours/ns, 571.020 timesteps/s
99.0% CPU use with 64 MPI tasks x 1 OpenMP threads

MPI task timing breakdown:
Section |  min time  |  avg time  |  max time  |%varavg| %total
---------------------------------------------------------------
Pair    | 19.41      | 25.304     | 30.111     |  49.4 |  5.78
Bond    | 0.2695     | 0.28197    | 0.2981     |   1.1 |  0.06
Kspace  | 194.79     | 200.5      | 208.22     |  21.4 | 45.80
Neigh   | 4.3559     | 4.6936     | 5.0531     |   8.6 |  1.07
Comm    | 94.258     | 98.027     | 102.62     |  22.1 | 22.39
Output  | 0.88976    | 0.89283    | 0.89983    |   0.1 |  0.20
Modify  | 97.84      | 100.99     | 105.03     |  14.0 | 23.07
Other   |            | 7.119      |            |       |  1.63

Nlocal:        13.5000 ave          18 max          10 min
Histogram: 3 6 10 12 0 11 17 3 1 1
Nghost:        2182.88 ave        2224 max        2149 min
Histogram: 2 7 9 9 13 5 12 0 4 3
Neighs:        4221.03 ave        6307 max        2627 min
Histogram: 2 7 6 13 14 8 9 3 1 1

Total # of neighbors = 270146
Ave neighs/atom = 312.66898
Ave special neighs/atom = 2.0000000
Neighbor list builds = 11925
Dangerous builds = 0

unfix		3
unfix		2
unfix		1

write_data	data.final.${pid}
write_data	data.final.0
System init for write_data ...
PPPM initialization ...
  extracting TIP4P info from pair style
  using 12-bit tables for long-range coulomb (../kspace.cpp:340)
  G vector (1/distance) = 0.37473669
  grid = 24 24 25
  stencil order = 5
  estimated absolute RMS force accuracy = 0.0030196076
  estimated relative force accuracy = 9.0934585e-06
  using double precision FFTW3
  3d grid and FFT values/proc = 2730 288
Last active /omp style is kspace_style pppm/tip4p/omp
WARNING: Not all mixed pair coeffs generated from mixing. Use write_data with 'pair ij' option to store all pair coeffs. (../write_data.cpp:312)

write_restart   restart.lmp.${pid}
write_restart   restart.lmp.0
System init for write_restart ...
PPPM initialization ...
  extracting TIP4P info from pair style
  using 12-bit tables for long-range coulomb (../kspace.cpp:340)
  G vector (1/distance) = 0.37473669
  grid = 24 24 25
  stencil order = 5
  estimated absolute RMS force accuracy = 0.0030196076
  estimated relative force accuracy = 9.0934585e-06
  using double precision FFTW3
  3d grid and FFT values/proc = 2730 288
Last active /omp style is kspace_style pppm/tip4p/omp
Total wall time: 0:07:19
