LAMMPS (30 Jul 2021)
  using 1 OpenMP thread(s) per MPI task
package omp 0
using multi-threaded neighbor list subroutines
echo both

include		in.partitions
variable        pid world 0
include		in.temp
variable        temperature equal 263.47
variable	tempDamp equal 100.0
include		in.pressure
variable        pressure equal 4500.0
variable        pressureDamp equal 1000.0 # This is 1 ps
include		in.seed
variable        seed world 745823

units		real
atom_style	full

read_restart	restart.lmp.${pid}
read_restart	restart.lmp.0
Reading restart file ...
  restart file = 30 Jul 2021, LAMMPS = 30 Jul 2021
  restoring atom style full from restart
  orthogonal box = (-0.025173763 -0.069141597 0.0091516269) to (20.025175 20.069143 20.690846)
  4 by 4 by 4 MPI processor grid
  restoring pair style lj/cut/tip4p/long/omp from restart
  restoring bond style harmonic/omp from restart
  restoring angle style harmonic/omp from restart
  972 atoms
  648 bonds
  324 angles
Finding 1-2 1-3 1-4 neighbors ...
  special bond factors lj:    0        0        0       
  special bond factors coul:  0        0        0       
     2 = max # of 1-2 neighbors
     1 = max # of 1-3 neighbors
     1 = max # of 1-4 neighbors
     2 = max # of special neighbors
  special bonds CPU = 0.546 seconds
  read_restart CPU = 0.752 seconds
include 	in.setup
variable	out_freq equal 1000
variable	out_freq2 equal 10000
variable	out_freq3 equal 1000

timestep	2.0

neigh_modify    delay 7 every 1

include		in.tip4p
# This is TIP4P/Ice

# create groups ###
group ox type 2
324 atoms in group ox
group hy type 1
648 atoms in group hy

# set charges - beside manually ###
set group ox charge -1.1794
Setting atom values ...
  324 settings made for charge
set group hy charge 0.5897
Setting atom values ...
  648 settings made for charge

# ### TIP3P Potential Parameters ###
pair_style lj/cut/tip4p/long/omp 2 1 1 1 0.1577 8.5
pair_coeff 1 1*2 0.000 0.000
pair_coeff 2 2 0.21084 3.1668
bond_style  harmonic
bond_coeff  1 450 0.9572
angle_style harmonic
angle_coeff 1 55 104.52
kspace_style pppm/tip4p/omp 1.0e-5
pair_modify tail yes

thermo          ${out_freq}
thermo          1000
thermo_style    custom step temp pe etotal epair emol press lx ly lz vol pxx pyy pzz pxy pxz pyz enthalpy

restart 	${out_freq3} restart.lmp.${pid} restart2.lmp.${pid}
restart 	1000 restart.lmp.${pid} restart2.lmp.${pid}
restart 	1000 restart.lmp.0 restart2.lmp.${pid}
restart 	1000 restart.lmp.0 restart2.lmp.0


include         in.dump
dump            myDump all atom ${out_freq2} dump.water.${pid}
dump            myDump all atom 10000 dump.water.${pid}
dump            myDump all atom 10000 dump.water.0
dump            myDump2 all dcd ${out_freq2} dump.dcd
dump            myDump2 all dcd 10000 dump.dcd
dump_modify     myDump append yes
dump_modify     myDump2 append yes


variable natoms 	equal  "count(all)"                        # NUMBER ATOMS
variable H      	equal  "enthalpy/v_natoms"                 # ENTHALPY-per-atom
variable Vol      	equal  "vol/v_natoms"                 # volume-per-atom
fix AVG all 		ave/time ${out_freq} 1 ${out_freq} v_Vol v_H file vol_enthalpy.dat
fix AVG all 		ave/time 1000 1 ${out_freq} v_Vol v_H file vol_enthalpy.dat
fix AVG all 		ave/time 1000 1 1000 v_Vol v_H file vol_enthalpy.dat


timer           timeout 02:55:00 every 1000
New timer settings: style=normal  mode=nosync  timeout=02:55:00

fix 		1 all shake 1e-6 200 0 b 1 a 1
       0 = # of size 2 clusters
       0 = # of size 3 clusters
       0 = # of size 4 clusters
     324 = # of frozen angles
  find clusters CPU = 0.003 seconds
fix             2 all nph aniso ${pressure} ${pressure} ${pressureDamp}
fix             2 all nph aniso 4500 ${pressure} ${pressureDamp}
fix             2 all nph aniso 4500 4500 ${pressureDamp}
fix             2 all nph aniso 4500 4500 1000
fix             3 all temp/csvr ${temperature} ${temperature} ${tempDamp} ${seed}
fix             3 all temp/csvr 263.47 ${temperature} ${tempDamp} ${seed}
fix             3 all temp/csvr 263.47 263.47 ${tempDamp} ${seed}
fix             3 all temp/csvr 263.47 263.47 100 ${seed}
fix             3 all temp/csvr 263.47 263.47 100 745823


run             250000
PPPM initialization ...
  extracting TIP4P info from pair style
  using 12-bit tables for long-range coulomb (../kspace.cpp:340)
  G vector (1/distance) = 0.37112287
  grid = 24 24 24
  stencil order = 5
  estimated absolute RMS force accuracy = 0.003644038
  estimated relative force accuracy = 1.0973912e-05
  using double precision FFTW3
  3d grid and FFT values/proc = 2197 216
Last active /omp style is kspace_style pppm/tip4p/omp
Neighbor list info ...
  update every 1 steps, delay 7 steps, check yes
  max neighbors/atom: 2000, page size: 100000
  master list distance cutoff = 10.8154
  ghost atom cutoff = 10.8154
  binsize = 5.4077, bins = 4 4 4
  1 neighbor lists, perpetual/occasional/extra = 1 0 0
  (1) pair lj/cut/tip4p/long/omp, perpetual
      attributes: half, newton on, omp
      pair build: half/bin/newton/omp
      stencil: half/bin/3d
      bin: standard
Per MPI rank memory allocation (min/avg/max) = 9.221 | 9.224 | 9.226 Mbytes
Step Temp PotEng TotEng E_pair E_mol Press Lx Ly Lz Volume Pxx Pyy Pzz Pxy Pxz Pyz Enthalpy 
 2000000    282.15245   -4673.9815   -4129.8267   -4673.9815            0    3787.7543    20.050349    20.138284    20.681695    8350.8468    4480.8337     3100.039    3782.3903    238.74959    506.63357    270.29002   -3668.5217 
 2001000     260.5862   -4680.5299   -4177.9675   -4680.5299            0    4545.9623    20.075294    20.011648    20.754052    8337.7266    7120.4478    2508.9886    4008.4504   -185.78279   -987.07769   -883.47954   -3625.1913 
 2002000    266.14026   -4689.9794   -4176.7056   -4689.9794            0    3156.2505    20.063793    20.204913    20.773839    8421.4481    3718.2799    2505.1936    3245.2779   -457.71043   -78.607055    -312.3024   -3789.0606 
 2003000    269.61414   -4699.9759   -4180.0023   -4699.9759            0    4148.8413    19.914661    20.084505    20.776612    8310.1485    4012.9245     4215.531    4218.0684    549.41885     1061.484    524.03984   -3677.1835 
 2004000    258.65131   -4721.2711   -4222.4403   -4721.2711            0    3532.4881    20.052994    19.986646     20.87845    8367.9177    1984.4489    5433.4709    3179.5445   -413.18547    465.66337    340.76689   -3791.3443 
 2005000    258.81579   -4674.6973   -4175.5493   -4674.6973            0    4674.0449    20.085265    19.815126    21.056161    8380.1847    5026.7964    5215.6509    3779.6873   -268.46535    1439.7958    51.520465   -3604.3044 
 2006000    266.51988   -4674.9924   -4160.9864   -4674.9924            0    5663.9223    19.805004    20.096696    20.988583    8353.7738    6204.3228    5132.6133    5654.8309   -95.638823    409.05932    792.35106   -3470.9439 
 2007000    263.73965   -4677.1632   -4168.5191   -4677.1632            0    4578.6425    20.200505    19.801059    20.840134    8335.8743    4338.6018    3872.3244    5525.0014   -551.28012    639.88907   -465.78828   -3611.8927 
 2008000    269.44588   -4690.8342   -4171.1852   -4690.8342            0    3630.1738     20.05604    20.192504    20.779872    8415.4672     6280.391    599.34817    4010.7823   -580.26163    687.28461    64.794496   -3725.6505 
 2009000    271.12511   -4676.3787   -4153.4911   -4676.3787            0    4456.8787    20.110762    20.019996    20.758043    8357.5488    3587.8865    4538.8327     5243.917    228.02421    -1706.197    944.82094   -3610.2588 
 2010000     275.9191   -4689.8565   -4157.7233   -4689.8565            0    3966.4931    19.976657     19.92914    21.043208    8377.6713    3982.3101    4713.0497    3204.1195    613.15013    689.98947    843.10246   -3673.0982 
 2011000    259.12609   -4678.9614   -4179.2149   -4678.9614            0    5249.2881    20.061085    19.911784    20.831159     8321.048    4963.7303    6252.9973    4531.1367    -971.0084   -544.85426   -389.05757   -3542.1931 
 2012000    260.01158    -4632.077   -4130.6228    -4632.077            0    5544.3702    20.080971    20.037323    20.704515    8330.8533    5235.5319    5636.5892    5760.9894    713.26301   -418.21439   -404.94039   -3456.9988 
 2013000    276.62248   -4667.1891   -4133.6993   -4667.1891            0    6055.7525    20.221663    20.016199    20.628228    8349.4985    4040.8827    6557.9393    7568.4354   -169.46735    628.82518   -926.25166   -3396.2972 
 2014000    249.43588   -4673.0271    -4191.969   -4673.0271            0    3027.8368     19.94125    20.193057    20.871413    8404.3919    4693.2707    1828.8727    2561.3669   -246.91243   -57.647008    1994.9575   -3820.8488 
 2015000    266.95214   -4690.1631   -4175.3234   -4690.1631            0    2520.4049    20.338356    20.005388    20.720503    8430.6899    1780.5989    3945.8422    1834.7737   -177.42297   -256.06435    512.38584   -3865.4322 
 2016000    270.76221    -4697.501   -4175.3133    -4697.501            0    4885.4366    20.162346    19.947038    20.665033    8311.0441    4685.8214    4330.1203     5640.368    -715.4505    1008.6964    -275.0175   -3583.1591 
 2017000    272.70662   -4702.9435   -4177.0059   -4702.9435            0    4939.2572    20.024489    20.146377    20.919757    8439.4674     5004.472    5302.3728    4510.9269    153.28224   -709.57658   -56.722096   -3569.0773 
 2018000    259.70935   -4708.4124   -4207.5411   -4708.4124            0    4276.7752     19.91735    20.021418    20.952602    8355.3444    4170.3265    4937.7232     3722.276    321.12637   -783.89458   -455.71078   -3686.3984 
 2019000    264.48964   -4688.9607   -4178.8702   -4688.9607            0    3624.5902    20.102136    19.931185    20.870292    8361.8783    2114.4619    4544.8544    4214.4542   -675.43994    203.41441   -477.56997   -3736.8536 
 2020000    264.39574   -4688.2298   -4178.3204   -4688.2298            0    4485.1578     19.98163    20.116278    20.608589    8283.7466    2972.0243    5193.5376    5289.9114    443.51261   -787.84921   -253.46964   -3636.4687 
 2021000    249.24108   -4677.7004    -4197.018   -4677.7004            0    4953.7825    20.119889    20.019274    20.724206    8347.4115     3506.068    4405.5907    6949.6889    640.08936    108.22809   -899.60866   -3593.9523 
 2022000    278.01961   -4711.9914   -4175.8072   -4711.9914            0    3684.1848    19.984832    19.988815    20.993895    8386.4968    6358.2929     2160.675    2533.5864     321.2287   -418.85887   -464.34848   -3725.2002 
 2023000    270.67638   -4724.3494   -4202.3273   -4724.3494            0    3574.2963    19.945876     20.08754    20.926049    8384.3058    7647.1361    570.23113    2505.5217     518.6906     1433.288    423.91738   -3765.2748 
 2024000    281.42791   -4656.6036   -4113.8462   -4656.6036            0     5899.971    19.927775    20.042549    20.662614    8252.7187    5379.7216    5636.7038    6683.4877   -1187.6948   -490.10939      323.593   -3403.7408 
 2025000    268.14304   -4644.7973   -4127.6609   -4644.7973            0     6249.226    20.037481    20.244675    20.490382    8311.9702    6214.7718    5624.8544    6908.0517    371.48856    634.09484   -591.63009   -3370.1199 
 2026000     268.2049   -4659.5167    -4142.261   -4659.5167            0    4684.2479    20.151874    20.131005    20.663887    8382.8736    4386.7148    4177.7878    5488.2411   -674.76062   -1745.4562    1260.5672   -3569.5854 
 2027000    288.55405   -4694.8706   -4138.3698   -4694.8706            0    5633.3862    19.975605    19.857086    21.059548    8353.4238    7136.7852    3767.8714    5995.5019    176.04839    259.99501   -180.90415   -3452.0763 
 2028000    270.79149   -4704.2223   -4181.9781   -4704.2223            0    5268.0257    19.960244    19.931946    20.840942    8291.4964    5059.3449    4784.0271    5960.7052   -1442.4287   -575.93289   -1138.7718   -3544.9528 
 2029000    267.84774    -4685.502   -4168.9351    -4685.502            0    5783.2216    19.740132    20.164745    20.824693    8289.3676    7548.8374     6212.904    3587.9234    318.62826    945.30352    431.55338   -3469.7903 
 2030000    269.15867    -4672.032   -4152.9368    -4672.032            0    4150.5783    20.479584    19.716245    20.735247    8372.4885    2376.5418    4810.1487    5265.0443    324.53598    301.28111   -786.92173    -3646.134 
 2031000    259.25894   -4640.3114   -4140.3088   -4640.3114            0    3732.5121    19.960032    20.113454    20.826391    8361.0714     2974.986    4078.4453    4144.1051    344.71343    993.02174    1063.0596    -3685.175 
 2032000    275.11018   -4683.7198   -4153.1466   -4683.7198            0    6103.2566    19.957072    20.083116    20.737254    8311.4954    6639.8224    5589.2171    6080.7302    -166.6075    485.19891     525.8033   -3413.3426 
 2033000    253.44403   -4663.0834   -4174.2953   -4663.0834            0    4223.3966    20.282059    20.181491    20.515119    8397.2934    2713.6139    4701.3691    5255.2068    23.411317    13.293318    1826.0582   -3657.0732 
 2034000    261.48614    -4702.935    -4198.637    -4702.935            0    2642.1306    20.103314    20.124384    20.794467    8412.7511    3349.3249     1920.435    2656.6319   -114.92395     245.2532   -1144.6545   -3874.4705 
 2035000    248.64785   -4712.4476   -4232.9093   -4712.4476            0    5040.2559    19.895755    19.908941    21.206893     8400.123    4945.6265    4369.4827    5805.6586   -668.74714    838.10447    -502.2767   -3615.4418 
 2036000    253.92489   -4683.6328   -4193.9172   -4683.6328            0    4955.5263    20.022791    20.012382     20.85085    8355.0134    4780.7478    5200.9289    4884.9023   -682.03633   -628.67323    2258.3768   -3590.0898 
 2037000     271.5475   -4697.7494   -4174.0472   -4697.7494            0    5394.4129    20.082666    20.107769    20.714267    8364.7858    4887.9306    5274.7401    6020.5679    262.40321    58.775893     578.1723    -3515.973 
 2038000    265.11052   -4663.4821   -4152.1942   -4663.4821            0    6209.7331    19.852506    20.022685    20.885074    8301.8267    4777.1551    8043.1737    5808.8707    43.441596    928.72204   -319.48059   -3400.3593 
 2039000    264.58996   -4703.1972   -4192.9132   -4703.1972            0    3369.6075    20.039458     20.06977    20.858988    8389.2201    1277.4303    4721.3679    4110.0242     221.7944    1221.2512    887.08659   -3780.6479 
 2040000    267.59786   -4682.8368   -4166.7518   -4682.8368            0     5145.261    20.148039     19.71769    20.965628    8329.0738    4165.8821    7147.3465    4122.5544    574.37913     1344.945   -934.21396   -3541.7518 
 2041000    279.24621   -4708.4321   -4169.8823   -4708.4321            0    3978.4477    19.913081    20.173121    20.827179    8366.4649    6386.1694    1220.0752    4329.0984   -7.1009265    1705.7231    819.83246   -3684.4468 
 2042000    255.21289   -4680.9943   -4188.7948   -4680.9943            0    2591.2566    20.275708    20.169961    20.552498     8405.154    869.69547    3677.1974    3226.8769   -202.08365    406.03716    10.256116   -3871.1571 
 2043000    263.42398   -4668.3579   -4160.3226   -4668.3579            0    5044.7873    20.212834    20.184396     20.70249    8446.2815    4961.2094    4921.3134    5251.8391     287.0398   -636.16518    762.02906   -3538.9039 
 2044000     253.8389   -4691.9891   -4202.4395   -4691.9891            0    4730.6945    20.074613    19.993858    20.628656    8279.7026     4078.841    5319.7852    4793.4571   -778.15548   -837.80159    1097.7465   -3631.2035 
 2045000    249.35528   -4694.0281   -4213.1255   -4694.0281            0    3089.6101     19.99477    20.319282    20.628671    8381.0035    2921.3754    1770.3084    4577.1467   -212.71168    1127.2053   -599.51661   -3835.4876 
 2046000    264.38547   -4710.9171   -4201.0275   -4710.9171            0    5573.7487     19.98349    19.946855    20.924044    8340.4866    6323.1815    4870.2453    5527.8193    552.98062    762.20691   -189.50464    -3523.051 
 2047000    272.36461   -4707.2828   -4182.0047   -4707.2828            0    3210.0165    20.027946    20.165436    20.769658    8388.2893    1796.0924    4859.9512    2974.0058    177.88161   -52.254928   -337.44276   -3789.3086 
 2048000     266.6288   -4715.2419   -4201.0258   -4715.2419            0    4923.7759    19.959811    20.059545    20.672086    8276.7872    5030.3115    4108.7281    5632.2882    3.4259948    85.549101    712.38413   -3606.6844 
 2049000     253.8849   -4655.9947   -4166.3563   -4655.9947            0    4266.3801    20.112126    19.968643    20.856651    8376.2786    4844.0612    3422.5406    4532.5387    -798.6774   -1071.7246   -1843.3695   -3645.1777 
 2050000    256.79005   -4694.9207   -4199.6795   -4694.9207            0    3994.4377    19.926599    20.005828    20.991418    8368.1892    4991.1941     3916.491    3075.6281    503.94842   -129.61028     554.5461   -3712.1925 
 2051000     288.2349   -4652.7786   -4096.8934   -4652.7786            0     4757.375    20.021998    20.075144    20.848589    8379.9755     5449.189    4320.6196    4502.3165   -311.93758   -819.97631    595.60902   -3515.4786 
 2052000    251.53848   -4688.4298   -4203.3167   -4688.4298            0    4655.4943    20.106117    20.105805    20.673314    8357.1804    4072.7648    5341.1942    4552.5239   -1507.9139   -283.13862   -913.14248   -3635.9008 
 2053000    256.41436   -4716.5312   -4222.0145   -4716.5312            0    3880.0805    20.026977    20.123291    20.762461    8367.4522    4371.2666    3668.6815    3600.2934    216.56638     455.8679    1988.6172   -3748.5255 
 2054000    263.67838   -4653.1312   -4144.6053   -4653.1312            0    4817.1882    20.071415    19.884075    20.957644    8364.2278    5036.3479    5310.2635    4104.9533    517.28602    218.71261    198.84242   -3556.9869 
 2055000    272.67011   -4695.0593   -4169.1921   -4695.0593            0    3779.7866    19.998106    20.025374    20.956747     8392.539    5685.1439    2973.2141    2681.0016   -565.93209    111.16433   -389.86034   -3706.5592 
 2056000    279.02145   -4668.6319   -4130.5156   -4668.6319            0    5408.7082     20.38757    19.760191    20.776562    8370.0931    3095.0767    6862.3384    6268.7094   -167.19848    -179.5513    124.67004   -3470.2788 
 2057000    246.09264    -4691.155   -4216.5446    -4691.155            0    4443.1092    20.003911    20.119384    20.713001    8336.2865    5473.8526    3534.0774    4321.3975   -62.168413    1193.0924   -1443.6792   -3676.3683 
 2058000    252.44664   -4661.3685    -4174.504   -4661.3685            0    2765.7986    20.096254    20.326006    20.643401    8432.3461    2745.7482    1895.6464    3656.0013   -436.59282   -613.13506   -633.63214    -3834.374 
 2059000    258.07781   -4676.5438    -4178.819   -4676.5438            0    4602.2253    19.925394    20.199027    20.723127     8340.511    4993.5565    3769.9433    5043.1762   -285.19289    441.72602    501.91167   -3619.0145 
 2060000    277.53074   -4710.2899   -4175.0486   -4710.2899            0    4204.1849    20.243867    19.864152    20.783991    8357.8095    3102.7419     5326.683    4183.1299    -97.61619   -581.56672    1257.8665   -3662.6001 
 2061000    261.94888   -4674.9938   -4169.8033   -4674.9938            0     3899.018    19.962677    20.150827     20.79983    8367.0323    4753.9051    3194.1065    3749.0425    231.00233    15.016081    192.30184   -3694.0273 
 2062000    265.57334   -4645.6552   -4133.4747   -4645.6552            0    3743.2966    19.909381    20.074424    21.200559    8473.2139    6959.6433    1803.5516    2466.6948    163.38335   -1449.8376   -210.17394   -3670.9038 
 2063000    268.70417   -4665.8866    -4147.668   -4665.8866            0    4932.3607    20.080747    19.894293    21.002694    8390.4141    5453.9565    5292.5742    4050.5513    439.44834    319.31231   -541.79929   -3544.1168 
 2064000    269.39794   -4691.9522   -4172.3956   -4691.9522            0     2422.889    20.032853    20.031186      20.8501    8366.7657    2663.4669    2486.3733    2118.8268    29.793499    -1364.922    149.69491    -3876.753 
 2065000     265.3824   -4699.4498   -4187.6375   -4699.4498            0    4929.7005    20.134843     20.13743    20.543381    8329.6013    5227.3622    5081.7872    4479.9522    398.40922    259.90088   -822.83761   -3588.7839 
 2066000    265.26089   -4641.6436   -4130.0657   -4641.6436            0    3375.5999    20.291699    20.176321    20.530721      8405.52    3979.0806    1293.8327    4853.8865    -424.4351   -285.10133   -652.26981   -3716.2647 
 2067000    254.91762   -4683.4024   -4191.7723   -4683.4024            0    5081.1979    20.182326     19.95225    20.708365     8338.903    3576.0528     6110.958    5556.5828    747.56114    586.49339   -465.76177   -3573.8258 
 2068000    269.24536   -4695.3241   -4176.0617   -4695.3241            0    3625.5148    19.975384    19.911141    21.154372    8413.7853    3766.9837    3286.6045     3822.956   -271.14916    -1094.703   -231.72159   -3731.1878 
 2069000    256.49686   -4706.3693   -4211.6936   -4706.3693            0    4727.2309    20.039528    19.810898    20.888658     8292.819    6469.4388    3575.9306    4136.3234   -924.19814    371.39137   -1325.5178   -3639.9716 
 2070000    259.90007   -4668.7278   -4167.4886   -4668.7278            0    6152.4316    20.138974    20.036232    20.683168    8345.8476    5591.8075    6243.5335    6621.9537   -880.69224    -37.17901    440.76998   -3418.6416 
 2071000    268.94854   -4680.7474   -4162.0575   -4680.7474            0    4902.0172    20.018209    20.094137     20.73626    8341.1322    7546.7712    2761.2155     4398.065   -677.42129   -1765.5285    503.37534   -3565.7425 
 2072000    280.39035   -4641.1368   -4100.3804   -4641.1368            0     4890.604    20.043673    20.236198    20.607625    8358.6122    4426.3142    4089.0229    6156.4747   -79.093588     20.36793   -18.019894    -3504.207 
 2073000    253.92266   -4704.6086   -4214.8974   -4704.6086            0    3975.4654    20.112293    19.991148    20.880546    8395.3959    5393.6607    3953.0363    2579.6991   -300.74259    697.16158   -732.50427   -3728.1485 
 2074000    254.79443   -4697.3868   -4205.9943   -4697.3868            0    4234.8352    19.951492    19.983484    20.997999    8371.9085    6476.6457    2599.1173    3628.7427    30.266819   -381.73119    310.12199   -3688.9391 
 2075000     259.7444   -4687.4273   -4186.4884   -4687.4273            0    6325.7164    20.108801    19.774674    20.871388    8299.4026    5176.3499    8142.0896    5658.7097    114.65486   -701.84145   -353.29154   -3420.8346 
 2076000    264.13285   -4685.9546   -4176.5522   -4685.9546            0    3162.2396    20.067313    20.225837    20.611443    8365.7356    5258.7912    540.92105    3687.0066   -72.827656   -68.306613   -1177.3917    -3790.741 
 2077000    255.72056   -4713.9793   -4220.8006   -4713.9793            0     5213.997    20.155482     19.96483    20.661766    8314.3106    4405.0594    6538.1853    4698.7462    776.82363    663.02083    723.14892   -3588.5738 
 2078000    276.34533    -4661.922   -4128.9668    -4661.922            0    6441.6391     19.97039    19.887913    20.794759    8259.0419    6262.3157    6235.0329    6827.5688   -911.73631     2159.757   -1501.5377   -3353.0736 
 2079000    261.53417   -4704.0303   -4199.6397   -4704.0303            0    4621.7361    20.021657    20.053962    20.799261    8351.1852     5139.837    4149.5731    4575.7982    312.33336    1562.7052    4.3247138   -3636.7424 
 2080000    267.86347   -4671.3451   -4154.7479   -4671.3451            0    4441.9455    20.205692    19.865291    20.906858    8391.8447     3511.376    6923.2067    2891.2536     471.9492    470.14155   -71.709771    -3611.114 
 2081000    277.17627   -4692.2097    -4157.652   -4692.2097            0    5811.5796    19.937973    19.976839    20.723935    8254.2948    7521.0954    4212.2973    5701.3461    -842.7517    844.94921    501.39968   -3458.0516 
 2082000     267.4348   -4725.1614   -4209.3909   -4725.1614            0    3274.3603    20.079272    19.961175    20.960612    8401.1363    4358.4862    2784.3105    2680.2842    -25.43049   -1044.0772   -296.51714   -3808.2098 
 2083000    265.45201     -4670.29   -4158.3434     -4670.29            0    5948.6833    19.859068    20.104524    20.939587    8360.2788    5755.7672    6741.1341    5349.1488   -188.04827   -900.26004    1697.2519   -3433.0437 
 2084000    271.44438   -4657.0431   -4133.5398   -4657.0431            0    4867.0204    20.130887    19.900566    20.725933    8303.1411    4694.9015    4393.4133    5512.7464    164.39584    102.73142   -996.70798   -3544.1787 
 2085000    256.46141    -4686.789   -4192.1816    -4686.789            0    6470.4086    19.888542    19.905157    20.806947    8237.1494    7404.3183    6124.5182    5882.3892    59.740843    885.09896   -637.48864   -3414.8889 
 2086000     255.9554   -4675.4009   -4181.7694   -4675.4009            0    4740.8145    19.956582    20.037513    20.826477    8328.0974    4202.5795    6200.0345    3819.8296   -67.953565   -1243.2828    321.92048   -3605.9655 
 2087000    263.26763   -4691.0503   -4183.3165   -4691.0503            0    4374.4909    20.224514     20.16256    20.429412    8330.6646    3848.9323    3834.2635    5440.2769   -507.94024    906.90422    -926.5024   -3651.8413 
 2088000     269.8214   -4696.9398   -4176.5666   -4696.9398            0    4981.9562    20.078236    20.090386    20.641649    8326.4182    4985.5378    5917.4308    4042.8999    258.14861   -401.30525    526.79804   -3571.5963 
 2089000    257.25613   -4717.8632   -4221.7231   -4717.8632            0    5146.2957    20.094318     20.00227    20.801411    8360.7523    3815.2962    5677.2055    5946.3855    194.07186    1301.2539    210.59343   -3594.2199 
 2090000    257.15097    -4682.012   -4186.0748    -4682.012            0    6043.1256    20.033947    19.837433    20.983958    8339.4881    4509.1411    6778.3089    6841.9268    -676.4042    411.89055    -1699.956   -3451.0924 
 2091000    267.53072   -4704.6339   -4188.6784   -4704.6339            0    4323.7453    20.043334    19.988458    20.885448    8367.4481    4466.6639    4139.3066    4365.2655   -220.82624    2395.7137   -848.59804   -3661.0489 
 2092000    262.98233   -4690.7782   -4183.5947   -4690.7782            0    6696.8719     20.13478    20.141249    20.474787    8303.3372    8325.4353    4838.4585    6926.7219   -342.97854    1002.5082   -1144.4792   -3372.6326 
 2093000    264.27236   -4662.0678   -4152.3964   -4662.0678            0    4348.1844    20.304317    20.049811     20.56941    8373.7598    4804.1628     4020.105    4220.2855    392.49954   -125.00387    290.26833   -3621.3844 
 2094000    257.40603   -4675.0434   -4178.6142   -4675.0434            0    4977.5921     20.02984    20.264494    20.726062    8412.5964    7415.9802    3889.9691     3626.827    459.45367   -169.90164   -394.98661    -3567.918 
 2095000    259.52597   -4724.3094   -4223.7918   -4724.3094            0    4807.1473     20.01043    19.968503    20.874153    8340.8595    4559.8354    4972.9719    4888.6345   -148.72491    790.22648   -840.25801   -3639.0365 
 2096000    265.00316   -4668.5761   -4157.4952   -4668.5761            0    4291.5122    19.723105    19.870965    21.096965    8268.2617    7737.4069    2279.2237    2857.9059    380.82933   -270.41182   -135.56339    -3640.007 
 2097000    263.95156   -4694.5863   -4185.5335   -4694.5863            0    3533.5812    20.081486    20.038179    20.934052    8423.7879    2886.1634    3471.8911    4242.6892   -450.06403   -554.38689   -550.44985   -3751.4249 
 2098000    271.47557   -4705.0274   -4181.4639   -4705.0274            0     6037.951    20.113215    19.997348    20.713658      8331.26     5355.304     6430.093    6328.4559   -409.19912    1043.1119    1517.5497   -3447.8355 
 2099000    250.17829   -4664.9262   -4182.4363   -4664.9262            0    3365.5531    20.127455    20.244003    20.714514    8440.3412    1622.7608    5282.3485    3191.5499    397.02923   -440.79748   -1632.2852   -3768.1579 
 2100000    275.08403   -4704.2807    -4173.758   -4704.2807            0    4602.2688    20.041877    20.082111    20.881973    8404.6434     3855.329    5737.4011    4214.0763    88.615468     201.5987   -236.60919   -3609.6436 
 2101000    249.77888   -4694.7603   -4213.0407   -4694.7603            0       3623.2    20.369954    19.755651    20.783259    8363.6347    1610.3768    5468.7932      3790.43    319.82156   -226.42098   -860.51013   -3771.1008 
 2102000    252.71912   -4665.7321    -4178.342   -4665.7321            0    4909.1017    20.002547    20.190605    20.849603    8420.3943    5976.5408    2664.2148    6086.5495    272.06594    249.22843   -779.69874   -3575.4905 
 2103000    266.27009   -4672.0443     -4158.52   -4672.0443            0     3963.287    19.761243     20.07219    21.053876    8351.0502     5104.944    3524.9945    3259.9225    99.425686    157.88583     51.36625   -3675.8253 
 2104000    265.99377   -4665.6094   -4152.6181   -4665.6094            0    5597.8322    20.118974    19.763845    20.804794    8272.5741    3271.5338    8344.2132    5177.7495    3.6205965    31.868194   -616.76119   -3477.2564 
 2105000    281.29419   -4667.0902   -4124.5907   -4667.0902            0    4671.8162    20.126118    19.965889    20.710188    8322.0959     4791.885    4123.6879    5099.8757   -225.97444    358.11077   -1217.8574    -3557.576 
 2106000    254.36367   -4701.1357    -4210.574   -4701.1357            0    3016.1961    20.114361    19.948436    20.905415    8388.2986    488.19512    6022.0489    2538.3442   -42.026205   -206.63091   -1826.6336   -3841.5884 
 2107000    269.01591   -4685.8782   -4167.0584   -4685.8782            0    4726.4048    19.924605    20.093651    20.762699    8312.5133    6099.4722    3863.3291    4216.4132   -348.63465    612.53079    2026.9634   -3594.0788 
 2108000    258.71728    -4659.833   -4160.8749    -4659.833            0    4263.0518    20.137776    20.154169    20.649478    8380.8002    4096.7816     4803.941    3888.4328    444.55083    1458.4844    698.20945   -3639.8218 
 2109000    272.70979   -4696.8322   -4170.8885   -4696.8322            0     5501.576    20.039579    20.023195    20.646896    8284.6993    4224.6199    7139.1246    5140.9836   -783.09419    471.78622    323.99298   -3506.1669 
 2110000    274.83202   -4679.6352   -4149.5986   -4679.6352            0    4700.2483     20.31491    19.972054    20.581998    8350.7437    3258.4661    5248.9315    5593.3473   -116.19729   -651.30658     163.8501   -3577.1693 
 2111000    274.52756    -4668.766   -4139.3165    -4668.766            0     6657.377    19.920365    19.987558    20.852941    8302.7956    9274.8825    5765.4501    4931.7985    446.45954    -540.9407    776.20196   -3333.1897 
 2112000    264.85758   -4671.2943   -4160.4942   -4671.2943            0    3856.5405    20.064171    19.907062      20.9843    8381.5215    5119.4302    2804.1295    3646.0617   -909.89026   -1823.6338    290.33136   -3689.0865 
 2113000    255.52815   -4706.6233   -4213.8157   -4706.6233            0     3654.446    20.055072     19.99686    20.878914    8373.2477    4002.7516    2774.4558    4186.1307   -173.38037    1395.3922   -881.97327   -3767.5522 
 2114000    261.37859   -4672.0987   -4168.0081   -4672.0987            0    4627.7777    20.160212    19.879011    20.827801    8347.0553    4922.6718    4431.2191    4529.4421    -346.0296   -1315.3558   -718.36959   -3604.6537 
 2115000    261.36699   -4681.0487   -4176.9804   -4681.0487            0    2568.9478    20.152198    20.055909    20.658231    8349.4506    1230.8289     1995.733    4480.2813     319.5924    -219.4024    304.83122   -3864.1644 
 2116000    245.70292   -4673.9966   -4200.1378   -4673.9966            0    4062.2068    20.073071    20.160195    20.639603    8352.3729    3911.1163    3085.1619    5190.3423   -28.303837    312.25935    112.18213   -3705.3172 
 2117000    255.81275   -4704.9022   -4211.5458   -4704.9022            0    4489.4254    19.887459      19.9599    21.001563    8336.6058    4513.6333    6090.4434    2864.1994    513.12476    -110.8974    131.26484   -3665.7177 
 2118000    256.86829   -4695.6952    -4200.303   -4695.6952            0    3028.8944    20.223672     19.98542    20.678041    8357.6213    2542.1583    2083.2644    4461.2606     453.9217   -276.18882   -273.23464   -3831.1192 
 2119000    246.79606   -4680.5944   -4204.6274   -4680.5944            0    4565.9611     20.08223    20.093121    20.735345    8367.0161    5289.2567    4026.4315    4382.1952   -736.92064   -83.776718   -1015.3061    -3647.469 
 2120000    259.10134   -4672.0283   -4172.3296   -4672.0283            0    3480.6711    20.090538    20.002824    20.848344    8378.2716    3128.0543    3585.2504    3728.7087   -384.60144   -817.61603   -205.23188   -3747.0316 
 2121000    256.59088   -4700.6972   -4205.8401   -4700.6972            0    5197.9405    19.879483    19.936164     21.00791    8325.8682    6004.7221    4680.9233    4908.1759    223.22971    1306.7389    293.99357   -3574.6841 
 2122000    268.52186   -4656.0528   -4138.1859   -4656.0528            0    3958.0329    20.143143    19.918343    20.916471    8392.0651    3752.5756    5188.4122     2933.111    408.36279    -462.3231    590.52502   -3653.7635 
 2123000     264.4926   -4685.8964   -4175.8002   -4685.8964            0    4537.8517    20.157441    20.092438    20.765223     8410.167    4566.9466    4424.5392    4622.0693   -537.20577   -1621.1144   -633.42575   -3619.2161 
 2124000    261.70944   -4680.8752   -4176.1466   -4680.8752            0    3226.9558    20.087882    20.048813      21.0261    8468.0136    5283.4594    1730.1218    2667.2862      864.747    352.30388    510.67483   -3777.6263 
 2125000    272.01946   -4680.9877   -4156.3753   -4680.9877            0    3033.6546    20.123666    20.130207     20.81324    8431.3094    2113.4764    3401.0089    3586.4786   -131.22717    83.475623   -480.29953    -3783.351 
 2126000    247.60666   -4685.4515   -4207.9212   -4685.4515            0    4952.8427    20.096154    19.932278    20.993264    8409.1066    3721.2893    6630.5613    4506.6775    493.74551    2769.7065   -683.83395   -3600.5135 
 2127000    267.80455   -4704.7263   -4188.2427   -4704.7263            0    3683.2898    19.951867     19.94788    21.100565    8397.9714    4166.3252    4398.9621    2484.5822   -570.93721    1341.8147   -246.10497   -3737.1289 
 2128000    252.50924   -4680.7523    -4193.767   -4680.7523            0     4384.072    20.069266    20.066087     20.87641    8407.1731     2736.092    6527.3987    3888.7252     568.8477    1061.8154    1547.8671   -3656.2359 
 2129000    277.90231    -4673.423   -4137.4651    -4673.423            0    5099.9326    20.018931    19.995956    20.961982    8391.0325    4443.0372    5644.8342    5211.9263    98.078402    101.37571    1292.7994   -3513.3628 
 2130000    261.20118   -4720.4977   -4216.7493   -4720.4977            0    3657.4493    20.050864    20.043335    20.728461    8330.4824    3278.6414    3681.6728    4012.0336    837.10394    1263.3644    613.14237   -3772.4001 
 2131000    254.83436   -4714.8801   -4223.4106   -4714.8801            0    1992.4363    20.241643    20.165276    20.756353    8472.2936    1652.4048    1389.1327    2935.7715    15.720938   -697.55426    1673.7869   -3977.2257 
 2132000    261.88729   -4651.5263   -4146.4546   -4651.5263            0     4692.721    19.950535    20.000417    20.856332    8322.0734    4403.9324    4793.1964    4881.0342    268.97518    -259.7906   -115.09606   -3576.9042 
 2133000    263.11684   -4650.2391   -4142.7962   -4650.2391            0    4261.2449    20.182768    20.084471    20.750402    8411.3873    3930.2648    2950.0108    5903.4592    298.45084   -315.57041   -779.90643   -3620.0631 
 2134000    254.99185   -4688.4526   -4196.6794   -4688.4526            0    5799.7017    20.017655    20.064664    20.673468    8303.4472    6157.2905    5350.0674     5891.747   -330.27716    830.33325   -1320.3272   -3494.3514 
 2135000    263.84549   -4695.2845   -4186.4363   -4695.2845            0    5991.2717     19.83216    19.945203    21.124954    8356.1121    7294.0998    4836.4092    5843.3062    867.02571   -1514.7599    191.59551    -3456.308 
 2136000    272.75857   -4692.4466   -4166.4088   -4692.4466            0    5311.4528    20.091447    19.949934    20.774119    8326.7456    4968.2646    6434.7815    4531.3122   -334.51261   -134.74381    115.55808   -3521.4017 
 2137000    260.43612    -4697.636   -4195.3631    -4697.636            0    5406.6518    20.090432    20.120558    20.686265    8362.0233    5275.5217    4684.1823    6260.2515   -951.49568    156.97634   -428.52299   -3536.0136 
 2138000    263.79412   -4689.5509   -4180.8017   -4689.5509            0    3678.8441    19.964617    20.092246    21.034105    8437.4947    4268.3006      2830.97    3937.2617    91.483948    1305.6467     82.41846   -3728.1118 
 2139000    247.22943   -4697.4271   -4220.6243   -4697.4271            0    5205.6355    19.953814    19.688117    21.146968    8307.6501    6326.1841     5863.663    3427.0594    -377.9098   -867.23564   -160.01203   -3589.9171 
 2140000    268.39798   -4681.0584   -4163.4304   -4681.0584            0    5144.1566    19.829385    20.135321    20.777766    8295.9598    7162.8293    3929.2294    4340.4112   -320.18645   -652.14189   -297.13432   -3541.0488 
 2141000    262.07352    -4688.923   -4183.4922    -4688.923            0    4490.0484     20.07196    19.990744    20.787486      8341.05    2937.6415     7069.357    3463.1468   -772.88115    538.54177    203.86248   -3637.2973 
 2142000    257.71717   -4677.7559   -4180.7266   -4677.7559            0    6105.1061    19.980161    19.919614    20.806097    8280.7663      6975.36    4674.2706    6665.6878    617.04141    196.18388    775.46792   -3443.4344 
 2143000    261.00549   -4690.6975   -4187.3264   -4690.6975            0    5622.4025    19.999854     20.01137    20.748106    8303.8998     5157.301    6000.5888    5709.3177   -155.74078    1045.6031   -484.72312   -3506.4318 
 2144000    266.42187   -4689.5215   -4175.7045   -4689.5215            0    6585.5732    20.063784    19.785864    20.875408    8287.1048     5786.952     7880.865    6088.9027   -486.30068    42.232325   -947.33118   -3379.7792 
 2145000    260.39806   -4677.6011   -4175.4016   -4677.6011            0    5153.4035    20.132725     19.59355    21.099555    8323.1739    3835.8202    6847.8285    4776.5618   -318.66299   -690.83879   -1522.7608   -3549.8559 
 2146000    258.19305   -4695.1828   -4197.2358   -4695.1828            0    5370.7037     20.08045    19.879438    20.737696     8278.241    5050.1692    4869.4742    6192.4676   -945.35783    527.19143    1761.2864   -3548.8326 
 2147000    259.16703   -4713.0903   -4213.2648   -4713.0903            0    2827.6106    20.115365    19.989245    20.857781    8386.7255    3023.3776    2940.1832     2519.271   -79.103334    747.03664   -627.00033   -3867.4147 
 2148000    258.30544    -4697.255   -4199.0913    -4697.255            0    3657.1757    20.046954    20.142836    20.734343    8372.5796    5268.8958    2587.2196    3115.4117    321.74722    466.45762   -674.58324   -3752.5301 
 2149000    270.88731   -4675.2846   -4152.8556   -4675.2846            0    5313.6688    20.188935    20.130442    20.567952    8359.0659    4671.3267     5248.632    6021.0477    470.18966    -161.8072    1500.5221   -3505.0748 
 2150000    250.98762   -4663.1397    -4179.089   -4663.1397            0    5036.1358     20.16838    19.894362    20.849633    8365.6453    3579.6934     5706.001     5822.713    13.616922    446.53523    581.69543   -3564.6585 
 2151000    266.72835   -4662.9228   -4148.5148   -4662.9228            0    2942.0164    20.107764    20.213993    20.852989    8475.8683    3285.9275    2698.3355    2841.7863     42.32216    765.00763   -743.83627   -3784.8467 
 2152000    269.85621   -4671.1214    -4150.681   -4671.1214            0    5499.2887    20.018607    20.102661    20.675891    8320.5428    4637.5878    4367.8513    7492.4268   -389.67421    34.697168    363.81763   -3483.3611 
 2153000    265.67435    -4700.759   -4188.3837    -4700.759            0    5803.0549    20.188633    19.686082    20.951835    8326.9945    5317.2959    6728.4424    5363.4264   -59.538311    906.66542   -1117.0208   -3483.6568 
 2154000     267.8039   -4691.7201   -4175.2378   -4691.7201            0    5367.9023    19.912897    20.028359    20.942349    8352.2832    6548.4431    4424.0449    5131.2188    806.21541    701.29056     684.4179   -3521.3764 
 2155000    253.99639   -4671.8055   -4181.9521   -4671.8055            0    5034.7706    20.116553    19.793308    20.945224    8339.8253    2617.3316    6872.1578    5614.8223   -35.932828    17.242611   -907.63278    -3569.584 
 2156000    258.96354   -4704.7912   -4205.3582   -4704.7912            0    3466.0709    20.080628    20.152079    20.695179    8374.6436    1116.0988    4704.9824    4577.1316   -425.32059    449.13777    537.93897   -3782.0276 
 2157000     275.4197   -4700.8961    -4169.726   -4700.8961            0    5306.5101    20.212406    19.812626    20.652307    8270.4401    5941.8443    4336.1767    5641.5091    213.54139    578.35141    945.16005   -3529.6766 
 2158000     250.1367   -4689.4268   -4207.0171   -4689.4268            0    3004.5758    20.045252    20.063511    20.839382    8381.1438    4226.1846    2864.5966    1922.9464   -863.50324   -833.69807   -264.04968   -3839.7666 
 2159000    252.36886   -4692.5611   -4205.8465   -4692.5611            0     3928.553    20.176758    19.879721    20.928663    8394.6607    3740.2247    5028.5746    3016.8596    347.65502   -954.72191   -257.96127   -3724.8835 
 2160000    271.18422    -4699.994   -4176.9925    -4699.994            0    5361.4603    19.940164    20.192643    20.676036    8325.0948    5092.0252    5165.6577     5826.698   -333.19157   -1354.5091    202.49692   -3526.0417 
 2161000    261.87897   -4688.1272   -4183.0716   -4688.1272            0    5468.0057    19.751228    20.089551    20.868118    8280.3292    8356.9139    3714.2815    4332.8217   -462.91656   -112.54717    1106.2047   -3522.7547 
 2162000    268.43367   -4687.4868   -4169.7899   -4687.4868            0    5560.6333    20.035656    19.815178    20.913724    8302.9596    6691.0647    6018.0154    3972.8196     554.4929    470.29263    611.87806    -3496.452 
 2163000     259.7972   -4664.5464   -4163.5057   -4664.5464            0    3964.0986      19.8123    20.261623    20.775678    8339.9673    4330.1135    3641.8956    3920.2867   -684.08716    489.24849   -1093.4337   -3681.3529 
 2164000    260.02617   -4684.1138   -4182.6314   -4684.1138            0    5746.1121    20.076928    20.016682    20.656811    8301.4246    4219.7394     6060.973    6957.6239   -749.13275    636.59716    1120.1882   -3486.9625 
 2165000    267.96659   -4698.7064   -4181.9103   -4698.7064            0    4576.5271    19.947785    20.238486     20.77266    8386.1925    3693.5172    3894.1719    6141.8923    832.90273    1186.0185   -97.530847   -3622.1826 
 2166000    271.82113    -4679.543   -4155.3131    -4679.543            0    4170.0954    19.993568    20.062814     20.74043    8319.5517    4542.8988    2945.7663    5021.6211    466.33197      996.453    123.63775   -3649.3465 
 2167000    272.86464   -4704.4916   -4178.2492   -4704.4916            0     4127.896     20.28868     19.87287    20.818549      8393.92    3215.1332    5820.5503    3348.0046   -620.81943    319.18042    -314.7063   -3672.9257 
 2168000    286.11234   -4691.7542   -4139.9625   -4691.7542            0     3446.642    19.963981    19.978045    21.082409    8408.5356    4199.0961    3370.3079    2770.5221    83.417246   -307.90839   -472.97756   -3717.3013 
 2169000    277.07472   -4677.1887   -4142.8268   -4677.1887            0    4973.5474    20.176495    19.893198    20.860867    8373.0309       5265.4    4054.3322      5600.91   -443.10619    569.71948    710.60982   -3535.4966 
 2170000    268.36669   -4685.6174   -4168.0497   -4685.6174            0     3568.736    20.037866    20.252222     20.72602    8410.8533    5284.3382    2116.2252    3305.6446   -360.87539    230.85359   -697.94381   -3730.2955 
 2171000    275.84532   -4696.9444   -4164.9535   -4696.9444            0    4471.7513    19.996996    20.041512    20.765177    8322.0603    4728.7329     4946.597    3739.9241    298.02399   -234.97665    430.35722   -3622.2228 
 2172000    268.68408   -4717.8064   -4199.6266   -4717.8064            0     4411.675    20.143355    20.027339    20.695521    8348.9416    4047.5964    4227.4424    4959.9863    41.002346   -241.05525   -49.554349   -3662.4577 
 2173000    240.19049   -4658.8429   -4195.6153   -4658.8429            0    5422.4245    20.050959    19.975085    20.802775    8331.9195    6783.0761    5078.0629    4406.1347    -223.0828   -754.33089   -191.69693   -3536.7229 
 2174000    272.38715   -4697.3681   -4172.0466   -4697.3681            0    3991.1382    20.102257    20.084834     20.68201     8350.372    4430.5926    3701.6818    3841.1403   -162.40781   -16.717602    817.76084   -3685.9994 
 2175000    262.34306   -4683.1582   -4177.2076   -4683.1582            0    5502.0865    20.110929    19.928347    20.591965    8252.7975    3941.4229    8103.9796     4460.857   -3.9814769   -101.27334    77.179548   -3514.9842 
 2176000    264.26778   -4714.2356    -4204.573   -4714.2356            0    5054.7864    19.932994    20.034252    20.892852    8343.4063    6495.5643    4356.0084    4312.7864   -326.25695   -1656.3106   -587.76755   -3589.5064 
 2177000    254.04553   -4666.7971   -4176.8489   -4666.7971            0    4805.6416    19.916174     20.10525    20.874199    8358.4396    5048.4569    4726.6972    4641.7706   -739.49269    -447.2344    -966.8375   -3591.0447 
 2178000     266.9795   -4682.8301   -4167.9376   -4682.8301            0    5331.0988    20.044431    19.896881    20.748018    8274.7592    5064.1006    5828.5295    5100.6663    448.98202   -842.21946    168.38112   -3524.5866 
 2179000    277.76994   -4682.4479   -4146.7452   -4682.4479            0    3008.8321    20.138559    20.350017    20.554288    8423.5585    3091.5834    2270.5971    3664.3159    372.67966    622.09816    803.54631   -3777.1133 
 2180000    268.02218   -4679.6102   -4162.7069   -4679.6102            0     2574.913    20.063081    20.160796    20.765817    8399.5174    2734.7636    1302.2565     3687.719   -14.984794   -765.41337   -441.89111   -3847.2843 
 2181000    257.93464   -4689.4347   -4191.9861   -4689.4347            0    4364.9706    19.987413    20.102807    20.847644    8376.6481    5148.1688    3976.2162    3970.5269   -406.34493   -41.632809    1505.4504   -3658.7402 
 2182000    267.35677   -4691.2556   -4175.6356   -4691.2556            0    4814.1929    19.911725    19.788149    21.098189    8313.0279    3590.1366    6211.1326    4641.3095   -24.315443    2441.7597   -548.77523   -3591.9773 
 2183000    255.68822   -4703.4974   -4210.3812   -4703.4974            0    3055.5122    20.050095    20.019387     21.00568     8431.483    3071.0387    3829.0664    2266.4314    -453.7821     494.2282    704.79868   -3834.6616 
 2184000    258.75312   -4705.7415   -4206.7143   -4705.7415            0    3603.9327    19.914157    20.176655    20.799496    8357.2597    4981.6649    1221.2255    4608.9077   -926.98902    939.64114   -31.696503   -3767.4596 
 2185000    281.02236   -4697.8085   -4155.8333   -4697.8085            0     3409.125    20.130685    20.095764    20.801625    8415.1206    3966.1688    2080.9036    4180.3027   -746.43851    366.61904      344.517   -3737.4454 
 2186000    261.30837   -4647.9849   -4144.0298   -4647.9849            0    4875.7761    20.126424    20.031919    20.819098    8393.6544    6494.1205    3825.2728    4307.9349    383.56943   -832.29996   -477.85214   -3547.1722 
 2187000    256.27233   -4691.4367    -4197.194   -4691.4367            0    1252.4151     20.11793    20.219842     20.80886    8464.6564    2755.1745   -583.59137    1585.6624     351.8435      590.158    838.32242   -4042.5854 
 2188000    266.34981   -4673.5199   -4159.8419   -4673.5199            0    5404.0442    19.793897    20.044266    20.933899    8305.6111    6816.5917    5275.7349    4119.8062     374.1499    387.33679   -463.45013   -3505.2564 
 2189000    258.66761   -4704.5631   -4205.7008   -4704.5631            0    4777.3019    20.187405    19.855224    20.868831    8364.7589    4513.8979    5391.0903    4426.9173    97.611451   -436.25541    731.98628   -3622.9109 
 2190000    275.89627   -4677.9984   -4145.9092   -4677.9984            0    3355.3838    20.081869    20.125807    20.823452     8416.086    2646.1008    3834.7144    3585.3361    40.717244    799.43822    537.65561   -3734.0695 
 2191000    273.28941   -4695.1237   -4168.0621   -4695.1237            0    5895.9608    20.007362    20.152378    20.489905    8261.4458    6192.7907    4636.2942    6858.7976   -531.74754    55.106117     344.7276   -3457.6889 
 2192000    257.06341   -4663.1169   -4167.3485   -4663.1169            0    4170.1464    20.037335    20.134695    20.676267    8341.7495    2368.5358    4595.5168    5546.3866   -520.60859    519.93035   -1639.5628   -3660.0257 
 2193000    271.39276   -4699.7856   -4176.3818   -4699.7856            0    1793.0191    20.226977    19.874945    21.069222     8470.039    2293.4774    605.02304    2480.5569   -234.94165   -1676.8623    501.55027   -3954.8959 
 2194000    266.39371   -4666.6591   -4152.8965   -4666.6591            0    5241.3779    19.953218    20.035275    20.915384    8361.3054    4658.7824    6396.4749    4668.8766   -369.24368      836.551   -1254.9189   -3513.7573 
 2195000    262.27245   -4677.7491   -4171.9346   -4677.7491            0    5511.6288    19.915574    19.880941    21.093804    8351.8884    6189.3346    5592.9417    4752.6101   -467.86234   -1103.8152    993.94946   -3500.5977 
 2196000    259.06156   -4685.4754   -4185.8534   -4685.4754            0    4520.6758    20.074851    19.991732     20.87392    8377.3519    3607.6506    5214.3921    4739.9847   -453.78724   -889.84329    1446.7931   -3633.5394 
 2197000    266.18063   -4682.8077    -4169.456   -4682.8077            0    5100.2363    19.998097    20.063723    20.638465     8280.901    4340.5063      5299.85    5660.3526   -157.16547    33.087853    356.54925   -3553.5083 
 2198000     266.7089   -4674.0151   -4159.6446   -4674.0151            0    5794.4517    20.157551    19.836511    20.770853    8305.3392    5731.7837    5216.5498    6435.0218     234.3792   -930.69174   -133.69318   -3457.7924 
 2199000     273.7344   -4669.0685   -4141.1487   -4669.0685            0    4350.1155    19.802461    19.982917    21.012355    8314.8187    5830.9426    3816.0681    3403.3358    370.58286   -258.95235     946.6237   -3613.6402 
 2200000    260.67156   -4703.5662   -4200.8392   -4703.5662            0    2584.9031    20.006619    20.170287    20.881888    8426.6611    3794.6086    1405.9405    2554.1603   -319.20129    827.04718    -370.4544   -3883.1695 
 2201000    259.54668   -4679.1812   -4178.6236   -4679.1812            0    4281.7559    20.077833    19.880636    20.919045    8350.0484    4950.3814    3816.2706    4078.6157    -65.70812   -1175.1466   -1010.4872   -3657.2047 
 2202000    269.15721   -4694.3848   -4175.2925   -4694.3848            0     4771.968    20.148139    20.107775     20.65584    8368.3881    4617.6372    4829.5516    4868.7153   -688.10369   -153.67813   -392.33188   -3592.9007 
 2203000    247.07609   -4683.7186   -4207.2116   -4683.7186            0    3611.4583    20.077255    20.002253    20.829193    8364.8025    4459.2731    2070.6471    4304.4545   -365.93045    331.51619   -749.58898   -3766.6423 
 2204000    251.16324   -4687.2726   -4202.8832   -4687.2726            0    4125.4743    19.955384    19.980561    20.930021    8345.2132    2847.0358    4991.7868    4537.6002   -505.52895    839.67089    795.82022   -3700.7867 
 2205000    261.48427   -4713.4205   -4209.1261   -4713.4205            0    4575.3749    19.930207    20.127072    20.665163    8289.5553     7487.145    1628.6781    4610.3017   -4.6217727    137.51379    1540.7716   -3655.9876 
 2206000    257.74666   -4703.5971    -4206.511   -4703.5971            0    6267.2738    20.059982      20.1693    20.468839    8281.6059    6295.0627    4623.1948    7883.5638   -458.57864   -473.31326    2019.5631   -3449.5577 
 2207000    253.60776   -4666.9738   -4177.8699   -4666.9738            0    3779.4631    20.135442    20.080162    20.783274    8403.1544    3511.8673    3322.2715    4504.2505   -244.53124   -897.79255   -556.74802   -3714.6914 
 2208000    258.44814   -4667.0571   -4168.6181   -4667.0571            0    4953.9206    19.981274    20.023262    20.903119    8363.1353    6437.6518    4006.1505    4417.9594   -454.96794    712.98292    485.10007   -3564.3996 
 2209000    267.09126   -4705.1786   -4190.0706   -4705.1786            0    3069.1441    20.027068    20.000949    20.994931    8409.7369    2876.1542    4353.6895    1977.5886   -722.20808    808.97297   -972.20683   -3813.6481 
 2210000     270.2292   -4663.9212   -4142.7614   -4663.9212            0    3006.9695     20.12575    19.859202    21.000986    8393.7021     3811.566    3399.3036    1810.0389    246.68673   -139.32394    390.06608   -3774.6677 
 2211000    261.68845   -4682.1598   -4177.4716   -4682.1598            0     5152.744    20.205864    20.087346    20.609502    8365.0294    5960.5008    3972.2143     5525.517    430.47393    722.01901   -1710.9875   -3548.8607 
 2212000    265.80098   -4691.1378   -4178.5182   -4691.1378            0    5295.4356    20.138993    20.055069    20.532191     8292.724    5781.2711    3735.5192    6369.5164   -78.393307    283.88807    1192.3067   -3538.0836 
 2213000    267.99528   -4664.3637   -4147.5123   -4664.3637            0    6340.7227    19.795441    20.004689    20.922049    8285.1659    6406.2071    7374.2916    5241.6694    279.07373    200.88229   -301.74241   -3381.3587 
 2214000    270.56879   -4691.8389   -4170.0242   -4691.8389            0     4120.887    20.038878    20.022059    20.925755    8395.8227    3642.7822    4137.3205    4582.5582   -589.65141   -365.38602   -834.56296   -3665.4444 
 2215000    251.50877   -4715.0407   -4229.9849   -4715.0407            0    3810.6921    19.903049    20.167079    20.875287    8379.0557     4579.436    2832.7943    4019.8459   -4.6815692   -1117.0555    1125.4127   -3764.3185 
 2216000    251.93661    -4673.096    -4187.215    -4673.096            0    2547.0879    20.293268    20.162163    20.642346    8445.9433    2310.2128    2228.2784    3102.7724     670.2661   -428.29552    80.498782   -3873.4764 
 2217000    253.83209   -4696.7662   -4207.2296   -4696.7662            0    4031.0965    20.106937    20.105823    20.591038    8324.2669    4046.1937    3264.3858      4782.71    602.40123    435.67397   -546.65044   -3717.8509 
 2218000    274.55981   -4688.5982   -4159.0865   -4688.5982            0    5069.0115    19.965416    20.194829    20.814356    8392.3102    7736.1087    2324.4162    5146.5095   -713.30567   -1600.9178    -652.4614   -3538.6738 
 2219000     261.7577   -4659.3968    -4154.575   -4659.3968            0    4750.8049     20.04255    19.949267    21.033192    8409.7892    4597.0229    4841.3485    4814.0434   -475.20067    371.56602    1083.2175   -3571.8976 
 2220000    253.81327   -4702.2585   -4212.7583   -4702.2585            0    2328.8136    20.090795    20.072487    20.902276    8429.3071    1679.8987    2685.7785    2620.7635   -85.971384    2109.5771   -1121.4014   -3926.4708 
 2221000    259.46296   -4688.2412   -4187.8451   -4688.2412            0    2655.2715    20.333635    20.185689    20.567919    8442.0702    1769.4214    2235.7652     3960.628   -659.88869   -184.12547    47.503298   -3860.9309 
 2222000    267.63625   -4719.2932   -4203.1342   -4719.2932            0    4631.1831    19.985371     20.12258    20.688142     8319.886    4905.7437    3790.7239    5197.0818   -53.066161   -229.39044    1386.9447   -3641.2003 
 2223000    259.60337   -4692.5993   -4191.9323   -4692.5993            0    2935.0792    20.014366    20.012614    21.017816    8418.4717    2153.6581    3964.9582    2686.6214   -222.96026   -1084.4945   -1134.3692   -3831.5787 
 2224000    261.52554   -4687.6821   -4183.3081   -4687.6821            0    3306.5224    20.098832     19.89757    21.072072    8427.0994    4080.8122    3015.9671     2822.788    -1057.172   -56.275189    1011.0047   -3776.9345 
 2225000    264.72245   -4706.8399   -4196.3004   -4706.8399            0    6009.4991    20.007212    20.097816    20.674092    8313.0784    3802.1966    8769.2837    5457.0171   -468.65625   -511.50838    542.11752   -3467.7225 
 2226000    267.74649   -4696.6551   -4180.2835   -4696.6551            0    5033.4929    20.249832    20.028259    20.573034    8343.7828    4617.7504    5153.4713     5329.257     12.53184    1461.6553   -951.28944   -3567.7803 
 2227000    281.49988   -4656.9498   -4114.0536   -4656.9498            0     4018.052    20.082031    20.078299    20.835648    8401.2047    4409.5752    4486.9828     3157.598    115.36305   -567.75734   -510.38534     -3621.75 
 2228000    278.75358   -4688.3349   -4150.7352   -4688.3349            0    5679.3213    20.213875    19.643341    20.921533    8307.2723    5302.4976    6893.7247    4841.7417   -590.82221    439.03695    -218.2489   -3462.6681 
 2229000    261.56849   -4674.9754   -4170.5185   -4674.9754            0    4055.1227    20.038459    20.059968    21.088121    8476.8097    4509.4698    4816.3189    2839.5792     208.4587    381.19072   -143.07225   -3669.2017 
 2230000    275.23858   -4672.0432   -4141.2225   -4672.0432            0    2984.2925    19.932098     20.16445    20.690204    8315.8026    2853.0996    3314.4869     2785.291    420.44783   -506.37047    58.131473   -3779.2951 
 2231000    275.09251   -4682.0937   -4151.5546   -4682.0937            0     4585.646    20.129026    20.208031    20.571253    8367.7268    5990.4994     3919.439    3846.9995   -847.31206    400.13494    491.55293   -3591.9467 
 2232000    260.89808   -4676.9519    -4173.788   -4676.9519            0    4987.6279     20.20103    20.006877    20.694187    8363.7531    5234.3683    5583.6721    4144.8433     -502.344   -1219.7572    1738.3198   -3565.4133 
 2233000      262.821   -4696.8738   -4190.0014   -4696.8738            0    4235.6001    19.786622    20.207405    20.785294    8310.7148    4458.0153    3655.5322    4593.2527   -340.14537    139.82392   -228.05275   -3676.6329 
 2234000    261.77274   -4671.9634   -4167.1127   -4671.9634            0    4107.0518    20.041967    19.948283    21.066371    8422.3948    2834.0338    4986.5965    4500.5252    -212.7783    16.155636   -732.90225   -3662.6353 
 2235000    268.48171   -4717.7145    -4199.925   -4717.7145            0    5075.0196    20.112607    20.052934    20.754219    8370.5247    4847.3631    3854.5755    6523.1203    -410.0539    708.02465   -696.87423   -3580.3893 
 2236000    267.25156   -4718.9673   -4203.5501   -4718.9673            0     4507.859    19.827082    20.100485    20.945288    8347.4086      6198.12    4236.9465    3088.5104   -96.170076    181.45571     -116.702   -3654.7706 
 2237000    264.73506   -4689.2403   -4178.6765   -4689.2403            0    4585.4108    19.909474    20.206482    20.880699    8400.3143    3593.2649     4929.619    5233.3485    559.07701    572.33387    428.20815   -3616.9179 
 2238000    268.01054   -4677.6753   -4160.7944   -4677.6753            0    4926.2869    20.397167    19.756817    20.706215    8344.2543    3340.1407    6312.7934    5125.9267   -338.43825    1209.9313   -1021.5528   -3561.3028 
 2239000    257.99207    -4683.552   -4185.9926    -4683.552            0    5044.7317    19.939516    20.150855    20.732352    8330.2235    4120.3096    6279.2245    4734.6612    281.35554   -758.79196    1325.9102   -3573.1194 
 2240000    268.43252   -4680.3873   -4162.6926   -4680.3873            0    4749.2681    19.999374    19.907347     20.84059    8297.3574    6413.6487    3289.9958    4544.1599    303.41969   -204.97882   -95.919519    -3587.991 
 2241000    246.77602    -4672.135   -4196.2067    -4672.135            0     5064.691    19.928505    20.002764    20.998214    8370.4165    5859.8288    3267.7041    6066.5402    19.412851    745.49374    753.38436   -3577.9399 
 2242000    263.56861   -4690.4191   -4182.1049   -4690.4191            0    3761.3913    20.015152    19.995743    21.144498    8462.4049    2611.3743    6041.0945    2631.7049    289.82447    703.91244    169.82468   -3717.8909 
 2243000    270.17273   -4678.6512   -4157.6004   -4678.6512            0    4052.5746    20.141153     20.06515    20.689799     8361.477    4204.6699    3882.2287    4070.8252     327.0601     155.4957   -644.26325    -3663.415 
 2244000    273.81059   -4691.8668      -4163.8   -4691.8668            0    5775.3079    20.225264    20.081168    20.560451    8350.5639    3219.1585     7481.277    6625.4881    117.14128    1287.5838   -1445.3576   -3460.4575 
 2245000    271.06721   -4650.0713   -4127.2954   -4650.0713            0    3171.4966    20.109048    20.035672    20.876775    8411.2169    1977.6242    3087.1116     4449.754    131.60971     1162.825    1960.8015   -3738.2511 
 2246000    268.02198   -4676.7533   -4159.8504   -4676.7533            0    4571.5151    20.124207    19.870723    20.790248    8313.6572    3934.5568    6568.2925     3211.696    188.57111    127.95197   -1568.3744   -3605.5717 
 2247000      268.212   -4699.9587   -4182.6893   -4699.9587            0     4276.228    19.845444    20.215043    20.780494     8336.646    5289.7826    3523.1668    4015.7347    531.98245    1139.2202    343.61815   -3662.7794 
 2248000    268.58928   -4678.2166   -4160.2196   -4678.2166            0    3791.7085    20.331194    20.061185    20.763661    8468.8297    1278.7752    5283.9094    4812.4409   -323.54993   -287.86201   -725.21324   -3691.9088 
 2249000    246.43119   -4677.4852   -4202.2219   -4677.4852            0    3138.6878    20.010649     20.03319    20.914907    8384.3079     2584.351    4319.4734    2512.2391   -296.22414    842.10743   -2052.2037   -3818.4341 
 2250000    276.10942    -4666.814   -4134.3138    -4666.814            0     3886.756    20.127502    19.965571    20.835833    8373.0267    2494.7998    4391.0412    4774.4271   -370.83677   -733.30731    860.70778   -3659.6942 
Loop time of 413.233 on 64 procs for 250000 steps with 972 atoms

Performance: 104.541 ns/day, 0.230 hours/ns, 604.985 timesteps/s
99.0% CPU use with 64 MPI tasks x 1 OpenMP threads

MPI task timing breakdown:
Section |  min time  |  avg time  |  max time  |%varavg| %total
---------------------------------------------------------------
Pair    | 20.368     | 27.962     | 36.394     |  77.9 |  6.77
Bond    | 0.26516    | 0.27907    | 0.29372    |   0.9 |  0.07
Kspace  | 170.27     | 181.3      | 194.82     |  41.0 | 43.87
Neigh   | 3.2344     | 3.5268     | 4.325      |  12.9 |  0.85
Comm    | 80.49      | 91.929     | 97.056     |  35.5 | 22.25
Output  | 1.2465     | 1.248      | 1.2607     |   0.1 |  0.30
Modify  | 99.915     | 101.15     | 102.7      |   6.9 | 24.48
Other   |            | 5.844      |            |       |  1.41

Nlocal:        15.1875 ave          20 max          10 min
Histogram: 2 2 4 6 9 14 9 5 9 4
Nghost:        2211.50 ave        2261 max        2170 min
Histogram: 5 5 7 11 10 9 6 5 4 2
Neighs:        4699.23 ave        6564 max        2962 min
Histogram: 2 4 9 9 9 15 7 3 4 2

Total # of neighbors = 300751
Ave neighs/atom = 309.41461
Ave special neighs/atom = 2.0000000
Neighbor list builds = 8493
Dangerous builds = 0

unfix		3
unfix		2
unfix		1

write_data	data.final.${pid}
write_data	data.final.0
System init for write_data ...
PPPM initialization ...
  extracting TIP4P info from pair style
  using 12-bit tables for long-range coulomb (../kspace.cpp:340)
  G vector (1/distance) = 0.37221395
  grid = 24 24 25
  stencil order = 5
  estimated absolute RMS force accuracy = 0.0034316738
  estimated relative force accuracy = 1.0334384e-05
  using double precision FFTW3
  3d grid and FFT values/proc = 2366 288
Last active /omp style is kspace_style pppm/tip4p/omp
WARNING: Not all mixed pair coeffs generated from mixing. Use write_data with 'pair ij' option to store all pair coeffs. (../write_data.cpp:312)

write_restart   restart.lmp.${pid}
write_restart   restart.lmp.0
System init for write_restart ...
PPPM initialization ...
  extracting TIP4P info from pair style
  using 12-bit tables for long-range coulomb (../kspace.cpp:340)
  G vector (1/distance) = 0.37221395
  grid = 24 24 25
  stencil order = 5
  estimated absolute RMS force accuracy = 0.0034316738
  estimated relative force accuracy = 1.0334384e-05
  using double precision FFTW3
  3d grid and FFT values/proc = 2366 288
Last active /omp style is kspace_style pppm/tip4p/omp
Total wall time: 0:06:55
