LAMMPS (30 Jul 2021)
Processor partition = 0
  using 2 OpenMP thread(s) per MPI task
using multi-threaded neighbor list subroutines
variable        pid world 0 1
variable        phase world IceV IceIII

shell cd ${phase}
shell cd IceV
include Restart.lmp
echo both
log log.lammps
#include		in.partitions
include		in.temp
variable        temperature equal 168.97
variable	tempDamp equal 100.0
include		in.pressure
variable        pressure equal 7357.9
variable        pressureDamp equal 1000.0 # This is 1 ps
include		in.seed
variable        seed equal 745823

units		real
atom_style	full
read_restart    restart.lmp.${pid}
read_restart    restart.lmp.0
Reading restart file ...
  restart file = 30 Jul 2021, LAMMPS = 30 Jul 2021
  restoring atom style full from restart
  triclinic box = (-3.2088251 -0.13052792 0.040304329) to (14.818824 22.710527 19.189694) with tilt (-0.065110784 -6.8414750 0.14440290)
  2 by 4 by 4 MPI processor grid
  restoring pair style lj/cut/tip4p/long/omp from restart
  restoring bond style harmonic/omp from restart
  restoring angle style harmonic/omp from restart
  1008 atoms
  672 bonds
  336 angles
Finding 1-2 1-3 1-4 neighbors ...
  special bond factors lj:    0        0        0       
  special bond factors coul:  0        0        0       
     2 = max # of 1-2 neighbors
     1 = max # of 1-3 neighbors
     1 = max # of 1-4 neighbors
     2 = max # of special neighbors
  special bonds CPU = 0.002 seconds
  read_restart CPU = 0.008 seconds

include 	in.setup
variable	out_freq equal 1000
variable	out_freq2 equal 10000
variable	out_freq3 equal 1000

timestep	2.0

neigh_modify    delay 7 every 1

include		in.tip4p
# This is TIP4P/Ice

# create groups ###
group ox type 2
336 atoms in group ox
group hy type 1
672 atoms in group hy

# set charges - beside manually ###
set group ox charge -1.1794
Setting atom values ...
  336 settings made for charge
set group hy charge 0.5897
Setting atom values ...
  672 settings made for charge

# ### TIP3P Potential Parameters ###
pair_style lj/cut/tip4p/long/omp 2 1 1 1 0.1577 8.5
pair_coeff 1 1*2 0.000 0.000
pair_coeff 2 2 0.21084 3.1668
bond_style  harmonic
bond_coeff  1 450 0.9572
angle_style harmonic
angle_coeff 1 55 104.52
kspace_style pppm/tip4p/omp 1.0e-5
pair_modify tail yes

thermo          ${out_freq}
thermo          1000
thermo_style    custom step temp pe etotal epair emol press lx ly lz vol pxx pyy pzz pxy pxz pyz enthalpy

restart 	${out_freq3} restart.lmp.${pid} restart2.lmp.${pid}
restart 	1000 restart.lmp.${pid} restart2.lmp.${pid}
restart 	1000 restart.lmp.0 restart2.lmp.${pid}
restart 	1000 restart.lmp.0 restart2.lmp.0


include         in.dump
dump            myDump all atom ${out_freq2} dump.water.${pid}
dump            myDump all atom 10000 dump.water.${pid}
dump            myDump all atom 10000 dump.water.0
dump            myDump2 all dcd ${out_freq2} dump.dcd
dump            myDump2 all dcd 10000 dump.dcd
dump_modify     myDump append yes
dump_modify     myDump2 append yes


variable natoms 	equal  "count(all)"                        # NUMBER ATOMS
variable H      	equal  "enthalpy/v_natoms"                 # ENTHALPY-per-atom
variable Vol      	equal  "vol/v_natoms"                 # volume-per-atom
fix AVG all 		ave/time ${out_freq} 1 ${out_freq} v_Vol v_H file vol_enthalpy.dat
fix AVG all 		ave/time 1000 1 ${out_freq} v_Vol v_H file vol_enthalpy.dat
fix AVG all 		ave/time 1000 1 1000 v_Vol v_H file vol_enthalpy.dat



fix 		1 all shake 1e-6 200 0 b 1 a 1
Finding SHAKE clusters ...
       0 = # of size 2 clusters
       0 = # of size 3 clusters
       0 = # of size 4 clusters
     336 = # of frozen angles
  find clusters CPU = 0.000 seconds
fix             2 all nph tri ${pressure} ${pressure} ${pressureDamp}
fix             2 all nph tri 7357.9 ${pressure} ${pressureDamp}
fix             2 all nph tri 7357.9 7357.9 ${pressureDamp}
fix             2 all nph tri 7357.9 7357.9 1000
fix             3 all temp/csvr ${temperature} ${temperature} ${tempDamp} ${seed}
fix             3 all temp/csvr 168.97 ${temperature} ${tempDamp} ${seed}
fix             3 all temp/csvr 168.97 168.97 ${tempDamp} ${seed}
fix             3 all temp/csvr 168.97 168.97 100 ${seed}
fix             3 all temp/csvr 168.97 168.97 100 745823


run             250000
PPPM initialization ...
  extracting TIP4P info from pair style
  using 12-bit tables for long-range coulomb (../kspace.cpp:340)
  G vector (1/distance) = 0.37901322
  grid = 24 27 32
  stencil order = 5
  estimated absolute RMS force accuracy = 0.002490627
  estimated relative force accuracy = 7.5004491e-06
  using double precision FFTW3
  3d grid and FFT values/proc = 5355 672
Last active /omp style is kspace_style pppm/tip4p/omp
Neighbor list info ...
  update every 1 steps, delay 7 steps, check yes
  max neighbors/atom: 2000, page size: 100000
  master list distance cutoff = 10.8154
  ghost atom cutoff = 10.8154
  binsize = 5.4077, bins = 5 5 4
  1 neighbor lists, perpetual/occasional/extra = 1 0 0
  (1) pair lj/cut/tip4p/long/omp, perpetual
      attributes: half, newton on, omp
      pair build: half/bin/newton/tri/omp
      stencil: half/bin/3d/tri
      bin: standard
Setting up Verlet run ...
  Unit style    : real
  Current step  : 18500000
  Time step     : 2
Per MPI rank memory allocation (min/avg/max) = 10.31 | 10.32 | 10.33 Mbytes
Step Temp PotEng TotEng E_pair E_mol Press Lx Ly Lz Volume Pxx Pyy Pzz Pxy Pxz Pyz Enthalpy 
18500000    175.55631    -5023.274   -4672.1396    -5023.274            0    7308.8171    18.027649    22.841055    19.149389    7885.1541     5670.626    8092.5021    8163.3233   -1005.6979    494.51288    -936.9891   -3831.6484 
18501000    173.77554   -5052.1337   -4704.5611   -5052.1337            0    7970.1579    18.058849     22.68433    19.103982    7826.0013     8108.207    7182.2243    8620.0424   -254.21395    48.778562   -634.85512   -3794.8935 
18502000    167.90932   -5035.6202   -4699.7808   -5035.6202            0    6499.9844    17.971339    22.777301     19.22727    7870.4637    6347.5738    6953.0581    6199.3211    207.54065    408.18052    443.69279   -3953.6954 
18503000    170.80612   -5040.8625   -4699.2292   -5040.8625            0    8782.4832     17.84483    22.796781    19.152997    7791.5286    7655.1827    9592.4583    9099.8087    1391.0089    683.18937    1545.6367   -3701.2629 
18504000    170.35479   -5063.3654   -4722.6348   -5063.3654            0    6835.4918    18.019673    22.706651    19.245032     7874.421     7511.949     6095.419    6899.1074    648.72489    187.11011   -855.29382   -3937.6445 
18505000    166.32034   -5029.3156   -4696.6543   -5029.3156            0    7792.0026    17.944423      22.6812    19.210054     7818.512    7939.7995     9011.868    6424.3403    205.16873   -110.97537   -798.39096   -3808.1714 
18506000    175.00378   -5033.5769   -4683.5477   -5033.5769            0    6887.4544    17.888142    22.829712    19.188418    7836.1875    7550.5288    7170.2575    5941.5768   -173.39746    937.14921   -327.17669   -3896.4304 
18507000    165.83654   -5032.6037   -4700.9101   -5032.6037            0    6315.8775    17.872506    22.728806    19.342377    7857.2744    7204.3297    6535.8144    5207.4885   -493.94242    713.77521   -203.67102   -3977.1719 
18508000    169.54609   -5034.0538   -4694.9407   -5034.0538            0     6640.917    17.821568    22.838036    19.289662    7851.0781    7740.0335    6132.0314     6050.686     627.5262   -422.16429    334.77489   -3934.5562 
18509000    172.80591    -5022.855   -4677.2219    -5022.855            0    9270.4874    17.871525     22.64965    19.266549    7798.7865    10502.214    9578.9013    7730.3471    126.63567    1162.7842    836.00155   -3622.8217 
18510000    174.55227   -5039.9754   -4690.8493   -5039.9754            0    6131.9241    17.952411    22.794761    19.276091    7888.1793    7127.3932     5843.591    5424.7882   -590.59058   -543.18833   -490.88574   -3985.4266 
18511000    167.74383   -5029.7543   -4694.2459   -5029.7543            0     8895.221    17.893432    22.717225    19.192286    7801.4557    8290.3581    8958.2261    9437.0789   -94.116215    318.99041     1096.651   -3682.1812 
18512000    176.54316   -5023.8379   -4670.7297   -5023.8379            0    6912.1011    17.939392    22.726874    19.266972    7855.2659    6764.7758    7264.3185     6707.209    -303.0932    388.69323    660.92018   -3878.8726 
18513000    174.67331   -5019.2762    -4669.908   -5019.2762            0    7285.6915    17.872004    22.825559    19.258549     7856.303    7587.2461    7183.7889    7086.0396    1627.8814    324.28298   -108.05673   -3835.1417 
18514000    163.27849   -5021.8854   -4695.3083   -5021.8854            0    8526.4726    17.967573     22.56033    19.281905    7816.0047    6828.5474    9874.3351    8876.5354   -678.28965     1257.731    -501.1173   -3723.3892 
18515000    171.88103   -5041.2807   -4697.4974   -5041.2807            0    6716.1936    17.870566    22.772691    19.303664    7855.8363    6792.5785     6788.023    6567.9793   -603.66591    13.955166   -601.63953   -3928.0277 
18516000    172.50147   -5039.8082   -4694.7839   -5039.8082            0    7926.2217    17.693314    22.891702    19.352966     7838.533    8296.7334     7674.769    7807.1629   -441.79117    643.79515   -19.622663   -3788.6823 
18517000    172.93902   -5044.1374    -4698.238   -5044.1374            0    6315.7864    17.736105    22.913975    19.339764    7859.7699    7632.8203    6120.9098     5193.629    303.20595    335.86715    57.224039   -3974.2804 
18518000    171.34872   -5052.0986   -4709.3799   -5052.0986            0    6288.8959    17.948662    22.625375     19.37352    7867.4935    6583.6952     6435.416    5847.5765     806.3561    115.49435    519.02584   -3987.7963 
18519000    166.06412   -5031.2779   -4699.1292   -5031.2779            0    7257.3656    18.032901    22.611116    19.285049    7863.3633    7083.3038    8231.7003    6457.0927    -456.9534    136.38778   -1273.4182   -3866.8611 
18520000     172.6207   -5041.9811   -4696.7184   -5041.9811            0    7018.1695     17.84512    22.969956    19.142494    7846.5392    6997.1881    7574.9501    6482.3704    361.34119    678.35891   -1183.5512   -3893.6031 
18521000    166.58539   -5051.2505   -4718.0592   -5051.2505            0    6299.9915    18.002948    22.852075     19.14746    7877.3554     6397.279    6286.0503     6216.645    625.94143   -679.46516    637.97399   -3994.2963 
18522000    168.61601   -5035.0145   -4697.7617   -5035.0145            0    6581.1744    18.132232    22.616884    19.240018    7890.2275     7088.347    5430.7875    7224.3887    170.92421   -1329.1893   -1400.4802   -3940.4602 
18523000    162.47314   -5041.5954   -4716.6291   -5041.5954            0    7544.1792    17.830176    23.006673    19.069882    7822.7141    8023.2929    7844.9895    6764.2552    1081.4977    1249.8554    1032.4027   -3855.9419 
18524000    174.87978   -5015.7023   -4665.9211   -5015.7023            0    8477.4435    17.865083    22.874167    19.198781    7845.5606    8503.4745    8635.7242    8293.1318    -45.95079    1185.8598   -348.48235   -3695.9367 
18525000    167.73135   -5010.8914    -4675.408   -5010.8914            0    7700.7573     18.07826    22.556756     19.24528    7847.9733    5931.3474    8471.0024    8699.9222    230.55595    221.35596     1445.068   -3794.0205 
18526000    179.21035   -5038.5586   -4680.1158   -5038.5586            0    7512.4359    17.883934    22.725008    19.217544    7810.2508    7492.2858    7702.8956    7342.1262    221.81329     399.9425   -333.04832   -3824.4156 
18527000    166.09725   -5005.5628   -4673.3478   -5005.5628            0    7337.5475    17.803014     22.89129    19.230369    7837.0285    8773.9586    6871.7101    6366.9736   -123.05162    754.78368   -641.18441   -3834.7027 
18528000    166.14124   -5040.2636   -4707.9605   -5040.2636            0     6300.547    17.820975    22.999896    19.180465    7861.6996    6937.9151    6529.3425    5434.3835    -963.6699   -74.151461   -2002.3157   -3985.5724 
18529000    169.61977   -5040.1063   -4700.8457   -5040.1063            0    6407.1171    17.956561    22.781997    19.261404    7879.5769    6683.0427    6430.9938    6107.3148    302.72023   -444.83587    1148.7897   -3964.5684 
18530000    168.39178   -5017.0941   -4680.2897   -5017.0941            0     7691.241    17.920112    22.744146    19.266475    7852.5845    9221.7808    6922.0321      6929.91    767.16496   -1739.7421   -728.16789   -3799.4742 
18531000    174.74039   -5022.2367   -4672.7343   -5022.2367            0    7185.3357    17.877684    22.784838    19.288461    7856.9641    8410.4328    6310.9854     6834.589   -83.307666   -779.75103   -625.34748   -3849.3971 
18532000    169.14333   -5024.6412   -4686.3336   -5024.6412            0    7372.2925    17.855596    22.787357    19.297712    7851.8883    8091.4803    7117.4261    6907.9713    647.94446   -705.93909    2620.7974   -3842.1196 
18533000    166.78045   -5027.8257   -4694.2442   -5027.8257            0    8613.7368    17.799616    22.824766    19.274829    7830.8248    8877.9845    9285.0859      7678.14   -467.25521     915.4118   -665.36329   -3710.5163 
18534000     166.6702   -5038.0776   -4704.7166   -5038.0776            0    8724.3077    17.784017    22.669475    19.316152    7787.3902    8462.8941     8569.606    9140.4229   -538.42827   -198.67095    -1277.969   -3713.8874 
18535000    165.66106   -5048.8137   -4717.4711   -5048.8137            0    7606.7991    17.843795    22.722405    19.335313    7839.5786    8187.2292     7575.132     7058.036   -402.28929    395.20826    426.99778   -3847.7689 
18536000    160.96219   -5038.1465   -4716.2022   -5038.1465            0    5356.7302    17.828152    22.901583    19.277538    7870.8818    4370.7188      5517.91    6181.5617    1072.0668   -641.89098     1042.236   -4101.3099 
18537000    173.44716   -5036.2771   -4689.3614   -5036.2771            0    7497.4942    17.865537     22.69321    19.324568    7834.6894    8419.6017    6777.7584    7295.1225   -374.98474   -616.89883    285.23956   -3832.6909 
18538000    164.14627   -5027.1245   -4698.8117   -5027.1245            0    7367.8873    17.819245    22.733357    19.420323     7867.003    8606.6102    7035.4005    6461.6513     632.3632    -244.7219    1017.6019    -3853.478 
18539000    165.97736   -5034.9109   -4702.9357   -5034.9109            0    7347.8307    17.825726    22.859739    19.246892    7842.9438    7852.3618    6944.2689    7246.8615    1429.9469   -261.44407    1594.5926   -3862.4814 
18540000    167.60634   -5026.4549   -4691.2215   -5026.4549            0    8101.4879    17.964291    22.664472    19.228005    7828.7049    7562.3477    8580.0254    8162.0905   -1142.7605    666.16567    430.47757   -3766.2452 
18541000    170.88286   -5032.9119    -4691.125   -5032.9119            0    7810.9125    17.946958    22.740977    19.220902    7844.6528    6329.4767    9096.2343    8007.0264   -94.559453    773.64697    134.18875   -3797.5081 
18542000    171.57076   -5040.6401   -4697.4774   -5040.6401            0    7304.1671    17.856065    22.960552    19.127833    7842.1268    7488.8834    6576.8536    7846.7642     873.6753    88.103956     816.8892   -3862.1043 
18543000    172.58193   -5029.1429   -4683.9577   -5029.1429            0    6503.3607    17.932844    22.596375    19.371477    7849.6573    7163.0066    6729.3201    5617.7556   -251.73649   -178.51313   -310.37338   -3939.4582 
18544000    167.39325   -5049.7917   -4714.9845   -5049.7917            0    8208.6301    17.869133    22.645805     19.31756    7817.0612    7943.7991    8399.1198    8282.9715   -716.03293    766.17074   -109.49482   -3779.1693 
18545000    163.33106   -5038.2427   -4711.5604   -5038.2427            0    8641.7703    17.767625    23.012586    19.089465    7805.2814     8870.955    8835.1655    8219.1904   -344.69795     494.0248   -2872.0721   -3727.8502 
18546000    170.81846   -5050.0071   -4708.3491   -5050.0071            0    7303.6994    17.781029    22.897988    19.216923    7824.1661    8332.5616     7703.812    5874.7247     1120.522     1078.918   -1070.1074   -3874.9427 
18547000    169.62717   -5036.5696   -4697.2944   -5036.5696            0    6838.5773    17.971597    22.552265    19.375876    7853.0468    7913.8247    6793.6481    5808.2592   -501.42789   -779.89301   -1310.3793   -3914.0814 
18548000    163.75565   -5038.4665    -4710.935   -5038.4665            0    7943.8825     17.99334    22.717221    19.155983    7830.1746    6980.1724    8551.8148    8299.6604   -441.55634    573.85334   -191.16312   -3803.7828 
18549000    175.11561   -5030.5317   -4680.2788   -5030.5317            0    8201.0698    17.899671    22.937442    19.059415    7825.2751    7617.8547    8604.3283    8381.0264    846.72666    674.47034    590.62955   -3744.3432 
18550000    173.23787   -5049.2692   -4702.7721   -5049.2692            0     8843.108    17.741537    22.855351    19.180332    7777.4146    8412.2176    8839.9706    9277.1358   -672.80586    114.56712    905.10634   -3699.7371 
18551000    178.06376   -5011.7763   -4655.6268   -5011.7763            0     7605.998    17.857624    22.626826    19.450296    7859.1131    9473.7495    7618.0036     5726.241    279.55541    925.50791   -40.931207   -3783.8493 
18552000    157.46901    -5021.995   -4707.0375    -5021.995            0    7708.2052    17.811498    22.684267    19.407901    7841.5833    9848.9019     7062.848    6212.8658    242.99845   -571.36955   -905.96769    -3825.516 
18553000    162.53629   -5043.3833   -4718.2907   -5043.3833            0    8427.8454    17.757292    22.838016    19.221433    7795.0853    9428.9496    8286.1618    7568.4248   -544.74679    -1624.915    161.31215   -3760.1852 
18554000    181.89046   -5038.0003   -4674.1969   -5038.0003            0    6487.0503    17.836812    22.830591    19.284679    7853.2027    6455.9679    7274.6059     5730.577    326.42068   -520.39586   -523.35757   -3931.2291 
18555000    176.13558    -5036.473   -4684.1801    -5036.473            0    7879.0846    17.915682    22.760573      19.2328    7842.5819    8901.3736    7510.0651    7225.8152     591.0007   -1296.4777   -10.102243   -3783.0018 
18556000    179.13598   -5026.1084   -4667.8143   -5026.1084            0    7218.6024    18.001326    22.820716       19.163    7872.2208    6375.9254    6860.2779    8419.6039   -633.99398   -617.14958    29.912932   -3839.0591 
18557000    164.45411   -5048.3979   -4719.4693   -5048.3979            0    6752.8368    17.885318     22.72957    19.304134    7847.6241    7415.9002    6484.5334    6358.0769    39.216616   -375.47729    1643.8845   -3946.6102 
18558000    169.82098   -5034.6999   -4695.0369   -5034.6999            0    7201.4809    17.822364    22.748859    19.328201    7836.3957    7785.6709    7703.1399    6115.6319    275.90324    343.53469    832.10262     -3872.01 
18559000    169.36568    -5032.035   -4693.2828    -5032.035            0    8277.2104    17.783818     22.93242    19.149489    7809.6593    8889.0775    7824.6828     8117.871    1173.4101   -355.27284     2285.406   -3750.5427 
18560000    166.20167   -5031.4819    -4699.058   -5031.4819            0    7296.0088    18.031395    22.655027    19.199387    7842.9832    6771.0099    7904.6909    7212.3255     185.8938   -415.28756    1111.0962   -3864.5269 
18561000    166.57851   -5021.7124   -4688.5348   -5021.7124            0    6971.4245     17.96757    22.859677    19.199599    7885.9059     5971.337    7021.5482    7921.3883   -291.49162   -160.55187   -434.18608   -3886.7663 
18562000    176.57791   -5018.0563   -4664.8787   -5018.0563            0    8773.7744    17.907628    22.836918    19.145108    7829.4883    9138.7361    8101.1592    9081.4279    143.11375   -116.93754   -1225.5999   -3663.0448 
18563000    172.41204   -5025.4168   -4680.5714   -5025.4168            0    6170.5963    17.903502    22.847796    19.338529    7910.5329    5903.8076    5734.6973    6873.2841   -338.77042   -906.27218   -2752.5347   -3968.6882 
18564000    165.72004   -5031.5292   -4700.0686   -5031.5292            0    8204.3648    17.828898    22.795034    19.245452    7821.5505     8629.412    8198.5772    7785.1052    2474.9715    1000.1445    2019.0273   -3764.2025 
18565000    162.84641   -5039.9299    -4714.217   -5039.9299            0    7104.9035    17.971751    22.591697    19.378578    7867.9424    6904.2016    8264.4354    6146.0736     417.7621     1206.604     803.9413   -3898.9587 
18566000    170.27273   -5018.1694   -4677.6029   -5018.1694            0    6285.4436    17.904458    22.745328      19.3715    7888.9035    5895.9628     6657.762     6302.606    84.979991     217.5071    1495.8455   -3954.4528 
18567000    169.64842   -5046.1293   -4706.8115   -5046.1293            0    6735.6184    17.873414    22.829318     19.22169    7843.1771    7457.2187    6468.5479    6281.0886     364.0928    31.606034   -1794.7447   -3936.3598 
18568000    173.35472   -5040.2572   -4693.5263   -5040.2572            0    8043.0815    17.963326    22.707271    19.199843    7831.5792    7356.9653    7999.1132    8773.1659   -228.04847    820.29147    212.21578   -3774.8814 
18569000    167.03892   -5049.9511   -4715.8526   -5049.9511            0    8939.5428    17.934215    22.637522    19.152166    7775.5149    10431.197    8505.7594    7881.6722    -1130.681   -554.54272     -265.206   -3702.1271 
18570000    165.14109   -5023.8331   -4693.5305   -5023.8331            0    6534.1335    17.970643    22.917664    19.087356    7861.0352     5421.943    5993.3243    8187.1333     803.0524   -1364.8694    30.705611   -3944.4239 
18571000    174.71358   -5041.8065   -4692.3577   -5041.8065            0    7728.3986    17.924843    22.809565     19.15166    7830.3066     7930.109    7290.0814    7965.0056    1015.5784   -238.16287    2309.7934   -3809.7979 
18572000    173.63524   -5009.0799   -4661.7879   -5009.0799            0    7528.2696    18.041309    22.650919    19.265839     7873.028    5994.4212    7788.1175    8802.2701    925.84065    53.247643    958.32452   -3797.3918 
18573000    165.05411   -5051.1564   -4721.0278   -5051.1564            0    8200.0644    17.967121    22.849412    19.034094    7814.2218    7881.0972    8160.4861    8558.6099    1057.8147   -55.513531    2203.6207   -3786.5287 
18574000    165.10378   -5049.3164   -4719.0885   -5049.3164            0    7160.5551    17.908245     23.11843    18.912354     7829.913    5911.2275     6983.031    8587.4068    1422.4295    106.43413    62.783656   -3901.4158 
18575000    158.45298   -5019.2726    -4702.347   -5019.2726            0     8048.364    17.966863     22.77546    19.101005    7816.1996    7356.3911    8157.9875    8630.7135    1518.2904    87.505908    1043.6095   -3784.9039 
18576000    169.28362   -5034.9956   -4696.4075   -5034.9956            0    6907.2233    18.034655    22.518418    19.372715      7867.49     6454.764      6990.35    7276.5559    201.40949    226.08091   -197.00069   -3903.8777 
18577000     158.4988   -5034.8888   -4717.8716   -5034.8888            0    8118.4581    17.807153    22.847816     19.09796    7770.0921    7561.8929    7368.9497    9424.5317    283.74902   -542.88478   -1063.5221   -3797.8974 
18578000    172.98622   -5009.5794   -4663.5856   -5009.5794            0    7970.0012    17.745913    22.945994    19.256471    7841.1889    9367.5838    7049.5065    7492.9134   -1613.4703   -556.89544   -820.94559   -3752.1705 
18579000    166.65483   -5039.9387   -4706.6085   -5039.9387            0    7192.8171    17.806095     22.78242    19.360764    7854.0025      7098.92    7981.0898    6498.4414   -455.97746    85.011039   -891.75792   -3882.7247 
18580000    178.61914   -5032.0537   -4674.7934   -5032.0537            0    7787.8862    17.784505     22.75667    19.311895    7815.8348    6887.7421    8396.8098    8079.1068   -568.88982    282.44258   -534.98828   -3787.0839 
18581000    173.56055   -5031.2489   -4684.1064   -5031.2489            0    8437.6209     17.75948    22.844733    19.249053    7809.5445    7401.2897    8381.1516    9530.4214    296.50654    296.25817   -248.70516   -3723.1103 
18582000    169.74355   -5059.0255   -4719.5174   -5059.0255            0    5328.7115     17.92554    22.707145    19.327154    7866.8831    5853.1845    5818.4571    4314.4929   -835.40135    -944.7759   -634.25448   -4108.1521 
18583000    168.35546   -5022.3153   -4685.5836   -5022.3153            0    6917.3668    17.919842    22.688098    19.286699    7841.3383    7937.0965    6417.2747    6397.7293    2053.9104   -1296.4322    1768.8094   -3894.5282 
18584000    179.84907   -5028.1777   -4668.4573   -5028.1777            0    7020.4198    17.746913    22.901587    19.262896    7829.0664    8136.4882    5887.0477    7037.7234    1966.9085   -949.33882    878.84915   -3866.8735 
18585000    171.40499   -5054.5491   -4711.7179   -5054.5491            0    6489.8538    17.924416    22.780393     19.24336    7857.5498    8063.4246     6451.532    4954.6049   -253.05536   -1170.1886   -695.36118   -3968.0176 
18586000    160.50098   -5027.4992   -4706.4775   -5027.4992            0    7373.0493    17.929396    22.697438    19.275713    7844.2775    8353.1259    6709.7806    7056.2413   -813.32248   -647.78095   -539.07269   -3862.9952 
18587000    163.99821   -5033.4574   -4705.4408   -5033.4574            0    7120.6625    17.848197    22.824848    19.224604    7831.7648    7109.6321    6998.1509    7254.2044   -661.39022   -562.15988   -1912.9756   -3892.1311 
18588000    168.48395   -5029.7864   -4692.7977   -5029.7864            0    7425.4368    17.915646    22.877835    19.168254    7856.5153    6810.8868    6808.7968    8656.6267    709.65532   -742.83892   -618.39281    -3841.997 
18589000    165.04806   -5060.9068   -4730.7903   -5060.9068            0     6760.015    18.069376    22.661974    19.151492    7842.3007    6908.0681    5903.5006    7468.4762   -140.31955   -1597.2133    175.47395   -3957.6344 
18590000    171.36188   -5048.6786   -4705.9337   -5048.6786            0     6915.193    17.859476    22.945776    19.135084    7841.5485    6146.7337    7099.3317    7499.5135   -136.20705    751.79642     748.6711   -3915.1057 
18591000    165.01074   -5034.7553   -4704.7134   -5034.7553            0    7094.1648    17.833721    22.875376    19.184967    7826.5664    6835.9236    6546.4029    7900.1678    1390.7367    -263.0888    1851.0396   -3894.9681 
18592000    171.01683   -5046.9189   -4704.8641   -5046.9189            0    7314.7552    18.082641     22.59855    19.192436    7842.8253    5080.9993    7949.7957    8913.4705    401.82154   -245.73398   -62.096156   -3868.2056 
18593000    179.12595    -5040.644     -4682.37    -5040.644            0    8177.0904      18.0033    22.711333    19.175188    7840.3305    8135.0071    7967.5491    8428.7151    352.70956   -101.47629    383.76586   -3747.3754 
18594000    165.02218   -5026.9193   -4696.8546   -5026.9193            0      8059.14    17.919359    22.802713    19.200038    7845.3273    7799.9188    8575.2417    7802.2596   -597.62529    474.63554   -1118.2396   -3774.7596 
18595000    153.36681   -5034.9146   -4728.1621   -5034.9146            0    6428.3474     17.87393    22.766692    19.303632    7855.2322    6087.3904    6432.2287    6765.4232    338.98713    140.92644   -1109.2045   -3991.7273 
18596000    166.96045   -5028.9302   -4694.9887   -5028.9302            0    5604.6809    17.761694    22.933276    19.395246    7900.3401    7371.2548    5375.4991    4067.2887    184.93439    446.10634   -251.47848   -4049.2266 
18597000    170.03977   -5034.2675    -4694.167   -5034.2675            0    7896.7186    17.774478    22.824387    19.296724    7828.5178    8225.4459    7861.8225    7602.8875   -329.42858    942.62767   -175.88017   -3792.5915 
18598000     172.9428   -5045.0478   -4699.1408   -5045.0478            0    7736.7396    17.907582    22.723584    19.276672    7844.1491    8007.3759    7358.1379    7844.7049    1466.8746    1050.4044     2066.774   -3814.0665 
18599000    168.64233   -5041.6685    -4704.363   -5041.6685            0    6691.7725    17.920147    22.789679     19.24268    7858.6026    7433.9158    6253.0068    6388.3949    1529.5228   -188.72624    914.85481   -3937.4212 
18600000    169.75481   -5040.6826    -4701.152   -5040.6826            0    8248.1024    17.817819    22.715284    19.325806    7821.8653    8938.8549    7771.1556    8034.2968    950.26577    889.63664    613.07622   -3760.2589 
18601000    162.82886   -5051.2307   -4725.5529   -5051.2307            0    6956.2351    17.860756    22.858209    19.238247    7854.3008    9371.2675    5961.8897    5535.5481   -94.125434     817.7233    338.74512   -3928.7375 
18602000    165.12745   -5031.7816   -4701.5063   -5031.7816            0    5595.7707    17.928855    22.808898    19.289182    7888.0684      4306.21    6744.9904    5736.1116    424.30669    919.92885    333.38759   -4057.7723 
18603000    173.98114   -5036.9295   -4688.9457   -5036.9295            0    6454.0029    17.978513    22.730187    19.290848    7883.3007    6865.6806    6765.8003    5730.5277    874.65427   -975.79745    612.36352     -3946.93 
18604000    176.40658   -5044.1953   -4691.3604   -5044.1953            0    7257.9979    18.012545    22.684623    19.180242    7837.1963    7022.5081     7724.334    7027.1517    757.84458    224.29235    1269.2253   -3861.7896 
18605000    171.76895   -5006.9224   -4663.3633   -5006.9224            0    7982.0084    17.978136    22.870773    19.094383    7851.1112    6919.8651    7668.2807    9357.8794   -728.32219    165.93289    253.84039   -3749.4201 
18606000    164.16801   -5052.7208   -4724.3645   -5052.7208            0    5539.0231    17.964368    22.918526    19.133455    7877.5654    5048.5054    5225.4817    6343.0822   -148.32769   -509.55544   -1317.4704   -4088.0071 
18607000    174.42856   -5040.9014   -4692.0227   -5040.9014            0    6684.3201    18.077528    22.463302    19.356473     7860.295    5578.9709     7342.686    7131.3035   -33.994066   -1196.3919   -660.44953   -3925.7701 
18608000    169.30916   -5024.6632   -4686.0239   -5024.6632            0     7735.869    17.857806    22.731646    19.321912     7843.485    5751.1018    9304.5845    8151.9207   -1167.1624    1598.8865    766.81024   -3801.1242 
18609000    161.26096   -5022.9193   -4700.3775   -5022.9193            0     8500.978    17.653267    23.095434    19.116009    7793.7854    8425.1442    8618.6152    8459.1747    1205.4055   -123.36425    927.30445   -3734.1192 
18610000     176.9861   -5036.5308   -4682.5368   -5036.5308            0     8817.656    17.938874    22.623219    19.292952    7829.7563    8688.6545    9859.5832    7904.7301   -418.31834    441.15335    802.36917   -3675.6578 
18611000    174.35446   -5020.4845    -4671.754   -5020.4845            0     6520.115    18.052812    22.546463    19.286802    7850.2501    4485.4298    7664.2376    7410.6777    289.01304    216.86795   -672.17273   -3925.2801 
18612000    170.72721   -5033.6637   -4692.1882   -5033.6637            0    7267.0282    17.827548    22.877271    19.230382    7843.0277    8299.1077    6743.6012    6758.3757    1472.9849    10.101352   -527.52595   -3860.9673 
18613000    170.56168   -5052.2383   -4711.0939   -5052.2383            0    6510.4298    17.788536    22.824655    19.336435    7850.9248    6598.2596    7425.8342    5507.1958     -713.159     889.4631    928.71316   -3965.6647 
18614000    178.94323   -5049.3473   -4691.4387   -5049.3473            0    6312.1026    18.016697    22.534906    19.387118    7871.2586    5550.4427    7352.0583     6033.807   -567.27244   -1198.8867    944.78754   -3966.8457 
18615000    176.47122   -5050.4448   -4697.4806   -5050.4448            0    6372.7429    17.824214    22.907012    19.246659    7858.4011    9766.4526    5382.6546    3969.1216   -461.14585   -399.50672    1217.8454   -3967.1214 
18616000    174.17079   -5064.1996   -4715.8365   -5064.1996            0    7138.4409     17.77471    22.935058     19.20526    7829.2931    7483.0692    6888.6739    7043.5796   -281.60905   -692.84893   -437.71433   -3900.7535 
18617000    159.50977   -5039.6007   -4720.5615   -5039.6007            0    6144.8075    17.932832    22.719515    19.278051    7854.3647    6110.9729     6391.536    5931.9135    165.40789   -654.03048   -296.47481    -4016.687 
18618000    163.92334    -5044.452    -4716.585    -5044.452            0    5867.6821     17.90669    22.706065      19.3506    7867.7696     5684.163    6615.1529    5303.7304    430.68201     -388.752   -162.51284   -4043.3075 
18619000    167.42201   -5049.3496   -4714.4849   -5049.3496            0    6349.1053    17.910855    22.821883    19.215368    7854.4632    6938.7439    6387.2981     5721.274    -270.3334   -1051.7087    1168.6233   -3987.1994 
18620000     169.8475   -5043.1706   -4703.4546   -5043.1706            0    6535.6531    17.861374    23.007715    19.130055    7861.4849    6323.7117    5587.6707     7695.577   -146.85878   -110.54312    706.76285   -3954.1309 
18621000    165.42324   -5042.7895   -4711.9226   -5042.7895            0    8252.5217    17.878918    22.671237    19.263199    7808.0909    7661.7308    8281.3159    8814.5184    550.83168   -1083.7683    1051.7347   -3772.1832 
18622000    173.34989   -5023.3571   -4676.6359   -5023.3571            0     7561.631    17.941683    22.543143    19.394631      7844.39    7794.1492    8301.9356    6588.8081   -536.35358    417.69277    126.47572   -3811.5673 
18623000    168.23176   -5038.4762   -4701.9919   -5038.4762            0    7537.2319    17.724858    23.060061     19.18135    7840.1142     9683.791    6958.8431    5969.0618   -832.35952    233.23599    174.08553   -3840.1846 
18624000     172.7885   -5029.6277   -4684.0294   -5029.6277            0    8993.4011    17.913655    22.623012    19.264155    7807.0079    9310.1947    9452.1335    8217.8752   -1012.7533    380.94704   -1189.2485   -3660.0659 
18625000    175.55172   -5028.4324   -4677.3073   -5028.4324            0     7877.353    18.056856    22.473039    19.315899    7838.2455    7800.2868    8317.5526    7514.2197   -1484.5406    670.64077    437.62647   -3776.8252 
18626000    171.37139   -5044.5561   -4701.7922   -5044.5561            0    8429.3919    17.930981    22.976451     18.95649    7809.8904    7754.3852    7895.9011    9637.8896   -1092.3657    314.16436   -1352.8386   -3741.6908 
18627000    167.32075   -5037.0133   -4702.3512   -5037.0133            0    7999.8032    17.874328    22.815826    19.134015    7803.1876    9718.9717    6857.7443    7422.6935    697.51193    162.95219    335.23884   -3791.9617 
18628000    164.72658   -5044.2851   -4714.8116   -5044.2851            0    7519.6384    17.959994    22.595743    19.331687    7845.1739    7693.9211    8425.1387    6439.8556   -287.07782    1642.9051    2118.8023   -3854.4611 
18629000    173.12836    -5005.126   -4658.8479    -5005.126            0    8900.7656    17.955393    22.660399    19.178297    7803.1957    8419.0671    9446.7596    8836.4702   -82.802127    1093.3488    2129.7986   -3645.9265 
18630000    161.47928   -5042.9806   -4720.0021   -5042.9806            0    7555.5553    17.897502    22.801812    19.199596    7835.2682    7569.9872     7476.294    7620.3846   -715.13816    1269.0433   -386.73359   -3856.6337 
18631000     163.8631    -5049.762   -4722.0155    -5049.762            0    7536.6701    17.911133    22.692826    19.220046    7812.0691    6581.3781     8425.126    7603.5061   -436.81722    1125.6507   -1544.7745    -3863.355 
18632000    173.43494   -5029.7077   -4682.8164   -5029.7077            0    5754.7223    17.953914    22.681023    19.346042    7877.9626    6144.0699    5473.5116    5646.5855   -1405.1974   -279.48816   -23.368153   -4021.6448 
18633000    164.56478   -5009.8255   -4680.6756   -5009.8255            0    7845.0703     17.87344    22.712974    19.258339    7818.0958    9380.9304    7527.6626     6626.618   -721.82438    -345.5639   -1221.5289   -3786.1893 
18634000    163.90617   -5043.9061   -4716.0735   -5043.9061            0    6868.2628     17.84527    22.752596    19.325092    7846.4942    7916.7222    7361.9321    5326.1341   -768.16506    694.53805   -707.86884   -3930.1171 
18635000    162.16568   -5031.9682   -4707.6168   -5031.9682            0    8095.0471    17.740852    22.870989    19.269886    7818.7721    9472.5287    7156.0986    7656.5139   -440.84655    904.73437    205.63007   -3784.5486 
18636000    182.95583     -5044.99   -4679.0558     -5044.99            0    8836.7371    17.934727    22.652687    19.200936    7800.7596    7296.8152    9365.6416    9847.7546   -188.95484    1303.5177    3337.1776   -3673.7349 
18637000     161.7628   -5030.6872   -4707.1416   -5030.6872            0    7459.9176    17.982259    22.662076    19.257422    7847.6947    8429.2529    6358.0418    7592.4581    179.95848   -508.20833    1355.4299   -3853.3497 
18638000    162.59752   -5030.6688   -4705.4537   -5030.6688            0    6691.8149     17.98389    22.774301    19.222703    7873.0525    5990.0337    7070.2158    7015.1951    304.96388    584.36173   -631.78603   -3937.0969 
18639000    167.22416   -5053.2454   -4718.7764   -5053.2454            0    6588.6442    18.061599    22.747863    19.082342    7840.2241    5862.3805    6948.7615    6954.7905    436.32996    71.989493     5.077166   -3965.4201 
18640000    169.45583   -5033.1188   -4694.1862   -5033.1188            0    6269.2556    17.991104    22.887498    19.185475     7900.029    5955.1274    5725.9543    7126.6853   -265.32642    222.42015    -541.9195   -3971.8813 
18641000    161.13789   -5022.4685   -4700.1728   -5022.4685            0    7764.9887    17.968023    22.799229    19.157438    7847.9801    6087.0689     9367.096    7840.8013   -1487.5576    1325.4811   -1219.3304    -3811.433 
18642000    167.77612   -5040.2471   -4704.6741   -5040.2471            0    6399.1478    18.003902    22.658837    19.273816    7862.7048    6882.9064    7352.7993    4961.7376    -632.3744    765.75128   -1537.9226   -3970.8872 
18643000    167.52435   -5044.4661   -4709.3967   -5044.4661            0    6951.4175    17.961212     22.80589    19.150024    7844.2599    7476.7721     6058.582    7318.8985    237.44086    308.05773    -1451.622   -3914.1512 
18644000    166.51642   -5028.1534      -4695.1   -5028.1534            0     6117.813    18.029569    22.708026    19.224245    7870.7119    5798.6257    6526.6735    6028.1397   -456.25569    359.56129     688.3529   -3992.8591 
18645000    169.16745   -5039.5638    -4701.208   -5039.5638            0    7007.5027    17.926296    22.826504    19.159412    7839.9293    5664.6208    7709.3139    7648.5734   -301.49963    233.79815    184.20423   -3899.9889 
18646000    169.62327   -5047.1032   -4707.8357   -5047.1032            0     6279.184    17.897629    22.802154    19.279977    7868.2452    6829.2972    5988.6274    6019.6273   -928.75699     461.2558   -1039.2672   -3987.2975 
18647000    163.50847   -5046.0656   -4719.0284   -5046.0656            0    6935.5846    17.903681    22.597049    19.394992    7846.6389    7939.3861    7389.4619    5477.9056   -83.092119    494.44136    197.88173   -3925.3536 
18648000    169.84122   -5042.7406   -4703.0372   -5042.7406            0    8224.8744    17.800849    22.833574    19.228092    7815.3927    7489.3286    8729.8856    8455.4092   -343.58964     509.9787    1218.9839   -3765.5703 
18649000     172.2683   -5026.8588   -4682.3009   -5026.8588            0    6740.3672    17.885061    22.893234    19.213665    7866.9756     8688.733    5309.7848    6222.5838   -85.514584    520.70176   -485.66215   -3908.9667 
18650000    168.36575   -5048.2039   -4711.4516   -5048.2039            0    5291.1631    18.019118    22.812155    19.210633    7896.6251    5025.2855    5190.1326    5658.0713    1182.2284    -16.49282    105.95659   -4102.0991 
18651000    176.95592   -5020.3614   -4666.4277   -5020.3614            0    7804.9119    18.143114    22.556013    19.130156    7828.7545    6002.1111    8260.0948    9152.5298     261.6154    439.54289   -350.41204   -3775.3069 
18652000    165.92725   -5028.9004   -4697.0254   -5028.9004            0    6986.5391    18.095783    22.776825    19.058785    7855.3539     5612.532    7682.5502    7664.5352     266.9883    966.32698   -18.077406   -3896.6316 
18653000    173.40459   -5038.5676    -4691.737   -5038.5676            0    7094.5009    17.895356    23.056357    19.035531     7854.093    6200.9234     6768.859    8313.7204   -589.00104   -253.76641    165.29542   -3879.1052 
18654000    168.11712   -5035.0658   -4698.8108   -5035.0658            0    9053.1187    17.849656    22.748332     19.22987    7808.2869    9371.6536    9230.8615     8556.841    618.68104    873.78646    1230.2385   -3667.8792 
18655000    171.49564   -5050.4967   -4707.4843   -5050.4967            0    7774.4719    17.966841    22.617569     19.27018    7830.7509    6606.4505    7644.4746    9072.4905   -368.81858   -1370.0462    231.53845   -3819.6126 
18656000    165.01834   -5050.9546   -4720.8976   -5050.9546            0    6596.3893    17.993979    22.758116    19.210674    7866.9449    6398.5339    6664.9082    6725.7259    3.0949926    -164.3566    1912.0903   -3964.0851 
18657000    169.70515   -5043.4655   -4704.0343   -5043.4655            0    5718.2635     17.72445    23.147285    19.157262    7859.7054    6064.3327    4465.9616    6624.4964    185.36935   -848.04643   -275.35816   -4048.5741 
18658000    162.14078   -5048.4985   -4724.1969   -5048.4985            0    6065.4579    17.870759    22.767831    19.358527    7876.5668    6192.1325    6864.2057    5140.0356    781.12513   -749.46462    1139.0742   -4027.4478 
18659000    161.80368    -5038.298   -4714.6706    -5038.298            0    7449.5767    17.895508    22.532248     19.43297    7835.8795     7815.954    8195.8478    6336.9284   -29.396234   -278.90859   -736.65424   -3863.3459 
18660000    169.91519   -5027.6066   -4687.7552   -5027.6066            0    7925.3423    17.799748    23.060228     19.05799    7822.6617    8044.1455    7535.3588    8196.5225   -662.26995   -5.3080372   -1393.1159   -3783.5886 
18661000    164.54337   -5045.8618   -4716.7547   -5045.8618            0    7386.2037     17.95323    22.885512    19.114559    7853.5771    8192.2977    6856.0526    7110.2609    -1492.944   -492.53484   -2087.7464   -3870.7658 
18662000    163.34023   -5029.1302   -4702.4296   -5029.1302            0     6246.021    18.065532    22.743348    19.206896    7891.5508    6235.5555    6143.6339    6358.8736   -1418.8007    656.75131   -926.80323   -3983.5739 
18663000    165.28444   -5035.5678   -4704.9785   -5035.5678            0    8407.9641    18.003652    22.499757      19.3419    7834.9747    8949.1508    7960.7942    8313.9472    178.79426    340.75579   -2471.2742   -3744.2419 
18664000    170.97442   -5051.1882   -4709.2183   -5051.1882            0    7089.3898    17.869075    22.877921    19.217985    7856.4523    6751.9429    7546.3255    6969.9009    1323.6408    694.15439    729.94858   -3896.9281 
18665000    167.34308    -5050.402   -4715.6951    -5050.402            0    6126.5439    17.836285    22.884803    19.262508    7862.5683     6236.972    5975.6987    6166.9609    162.35836   -420.92556    299.40318   -4013.1797 
18666000    173.43287   -5012.1966   -4665.3094   -5012.1966            0    8812.0861    17.943505    22.558515    19.336832    7827.1404    7731.8979    8903.3072    9801.0532    986.97737    385.68714    391.36181   -3659.4026 
18667000     171.7721   -5053.1062   -4709.5408   -5053.1062            0    6916.7144    17.807688    22.870773    19.243032    7837.2177    7053.7246    6586.5854    7109.8333   -814.39223   -533.28733   -1159.3387   -3918.9757 
18668000    164.18402    -5011.166   -4682.7777    -5011.166            0    8059.3223    17.756032    23.073447    19.109463    7829.0108    7646.0666    7331.4118    9200.4884   -292.94778    549.34008   -3152.5026   -3762.5796 
18669000    177.38442   -5027.0267    -4672.236   -5027.0267            0     8450.788    17.869577    22.662503    19.360966    7840.5976     9483.247    8758.7494    7110.3676    300.01364    908.38977    989.70559   -3705.9131 
18670000    171.26603     -5033.97   -4691.4168     -5033.97            0     8886.531     17.85375    22.523306    19.449344    7821.0766     9078.323    10048.275    7532.9954    179.64369    140.74511   -1277.1436   -3677.7979 
18671000    164.40904   -5018.7077   -4689.8693   -5018.7077            0    6975.5425    17.928924    22.775384    19.246775    7859.1923    8480.5602    5870.2114    6575.8559   -611.33377   -1463.0218    1498.6745   -3890.3448 
18672000    159.88102   -5020.7218     -4700.94   -5020.7218            0    9461.9108    17.873837    22.824717    19.082238    7784.8903    10079.579    7904.3929     10401.76   -526.96394   -1059.5739   -859.57722   -3626.6853 
18673000     168.5275   -5063.5273   -4726.4515   -5063.5273            0    5016.2251    18.040496     22.75723    19.247238    7901.9864    4605.9674    4172.1539    6270.5539     294.0045    602.72196   -106.87081   -4148.3698 
18674000    169.43041   -5039.2479   -4700.3661   -5039.2479            0    9143.9761    18.026573    22.463392    19.233823    7788.5056    8553.5167    9886.3102    8992.1015   -1492.4158    1301.6015   -695.29073    -3661.726 
18675000    170.86326    -5044.844   -4703.0964    -5044.844            0    8291.3953    17.758685    23.008094    19.128499    7815.7801     9560.021    6995.8957    8318.2692   -989.04494    678.12825   -2657.3347   -3758.0006 
18676000    166.48211    -5041.413   -4708.4282    -5041.413            0     7075.185    17.841885    22.893247    19.238175    7857.9995    6344.7846    7041.6961    7839.0741    176.67814    1175.9955    578.24043   -3897.6059 
18677000    171.46023   -5025.3341   -4682.3924   -5025.3341            0    8360.8484    17.985296    22.536546    19.290421     7818.918     8561.611    8256.4038    8264.5304    439.59768    1014.3702    2061.0256   -3728.9974 
18678000    177.22758   -5049.9767   -4695.4996   -5049.9767            0     5514.595    18.014813    22.831448    19.200676    7897.3197    6535.8252     4777.325    5230.6348   -144.40254   -253.46601    211.36799     -4060.36 
18679000    166.66018   -5022.8646   -4689.5236   -5022.8646            0    6915.9679    18.036224    22.861682    19.103687    7877.1839    6525.8415    6474.2386    7747.8236   -1707.1576    110.59243   -467.24977   -3895.0127 
18680000    163.61003   -5026.3743    -4699.134   -5026.3743            0    6280.0499    18.036022    22.752552    19.238699    7894.8991    6427.6366      6526.61    5885.9032   -1210.2722    707.30782   -1063.6205   -3976.0553 
18681000     170.0607   -5048.5763   -4708.4339   -5048.5763            0    7198.8223    17.911702    22.666155    19.306752    7838.3372    6265.9897    7776.2754    7554.2019   -415.97788    779.74909   -1553.5886   -3885.5069 
18682000    167.39736   -5024.8863   -4690.0709   -5024.8863            0    8924.5228    17.616447    23.013007    19.252643    7805.1642    10907.938    7668.0995    8197.5308   -159.79969   -12.238379   -1156.8816   -3674.1897 
18683000    166.19581   -5048.1001   -4715.6879   -5048.1001            0    7318.2001    17.858632    22.779929    19.212519    7816.0059    6327.3632    8068.1308    7559.1062    1019.1421    748.78226    -58.32302   -3881.4978 
18684000    163.74329   -5049.0798    -4721.573   -5049.0798            0    7490.1187    18.039099    22.516782    19.302246    7840.2337    7568.4135    7722.2897    7179.6528    541.58214   -604.88159    330.85208   -3865.1396 
18685000    178.05276   -5035.5688   -4679.4413   -5035.5688            0    8065.0993    17.936862    22.785926    19.135937    7821.0111    8007.4324    7539.3776     8648.488    1474.0945   -371.16428     431.4247   -3759.5246 
18686000    170.70361   -5025.6635   -4684.2352   -5025.6635            0    7712.4567    17.928358    22.972377    19.003231    7826.6143      8644.78    6834.7738    7657.8164    117.92654    763.95385    434.74152   -3803.9112 
18687000    169.19904   -5049.6978   -4711.2788   -5049.6978            0    7472.7316    18.019836    22.686739    19.161615     7833.485    7282.1234    7332.9055     7803.166   -637.67695    66.787491    199.27884    -3857.569 
18688000    169.64403   -5025.4185   -4686.1094   -5025.4185            0    8156.2286    17.965744     22.62594    19.294779    7843.1703    8462.9759     8346.855    7658.8548      444.435    333.50534   -1541.1364   -3753.1626 
18689000    165.77782   -5054.9278   -4723.3517   -5054.9278            0    6728.2325    17.887149    22.923213    19.142041    7848.8287    7025.9339    5659.8219    7498.9416   -13.984714    273.18203   -908.13634   -3953.1903 
18690000    176.62863   -5024.0518   -4670.7727   -5024.0518            0    7574.5391    17.829095    22.996205    19.092359    7827.8962    7702.7376    6806.7263    8214.1535   -58.507017    1110.1251   -620.03992   -3806.0494 
18691000    169.99457    -5030.465   -4690.4549    -5030.465            0    7926.2374    17.960372    22.703425    19.250829    7849.7561    8072.4546    7758.4607    7947.7971   -984.55725    272.67784    1515.9021   -3783.0541 
18692000    167.18618   -5017.4156   -4683.0226   -5017.4156            0    8871.9557      17.8155    22.837576    19.163631    7796.9694    8317.9234    8812.6284    9485.3153    233.33386   -201.10006    2598.4172   -3674.1854 
18693000    164.59959    -5035.216   -4705.9965    -5035.216            0    6119.6737    17.876502    22.991337    19.159821    7874.7759    7094.5693    6179.4224    5085.0293    1195.5339    -489.9977   -580.07119   -4003.1794 
18694000    173.61269   -5042.8882   -4695.6414   -5042.8882            0    6215.0993    18.097861     22.58454    19.259898    7872.1341    5356.1222    6517.1728    6772.0029   -487.24163   -949.80645   -1735.5003   -3982.1045 
18695000    170.97953   -5037.4326   -4695.4524   -5037.4326            0    7671.2281    17.894386    22.709172    19.238931     7818.061    7299.2109    7791.3682    7923.1052   -59.944254    246.98245   -453.52483   -3820.7913 
18696000    162.00411   -5027.9147   -4703.8864   -5027.9147            0    7825.0594     17.83717    22.965898    19.121166    7832.9212    8940.1933    6985.5534    7549.4316   -37.461424   -816.40524    878.24958   -3809.9898 
18697000      166.567    -5025.194   -4692.0394    -5025.194            0    8556.4904    17.914889    22.841615    19.098441    7815.1771    7260.7592    9151.0491     9257.663   -136.30512   -60.162246   -2281.0712   -3716.8019 
18698000    163.23082   -5025.0872   -4698.6054   -5025.0872            0    7643.5325    18.104823    22.511096    19.268568    7853.0862    6847.5885    8269.9643    7813.0446    1192.5061    522.04826     406.0195   -3823.1977 
18699000    172.81415   -5034.7937   -4689.1441   -5034.7937            0     6492.594     17.88858    22.950635    19.131229     7854.408    6180.6438    6756.2407    6540.8975   -189.41575   -613.05399   -366.84359   -3945.4273 
18700000    163.91237   -5027.3182   -4699.4732   -5027.3182            0    8268.9457    17.730576    22.969246    19.168762    7806.6309    9080.4894    7234.8652    8491.4824   -953.17262     371.7207   -1175.5375   -3758.0397 
18701000    163.52916     -5025.94   -4698.8614     -5025.94            0    6960.0599    18.011577     22.61009     19.28802    7854.9183    7047.6141    7214.2414    6618.3241     610.4687    426.34987     128.3478   -3901.5453 
18702000    168.62698   -5045.5087   -4708.2339   -5045.5087            0    7170.7951    18.072071    22.594474    19.260072     7864.445    6775.3579    7727.6673      7009.36   -73.845368   -794.92753   -402.78977   -3885.7805 
18703000    171.35594   -5055.6774   -4712.9443   -5055.6774            0    7347.0026    17.840124    23.070187    18.981421    7812.2782    6409.3205    7081.0583    8550.6289    1028.0726    448.28551   -647.15765   -3875.8705 
18704000     167.5154   -5061.5866   -4726.5351   -5061.5866            0    6506.9825    17.936295    22.807037    19.210663    7858.5779    5109.4807    7296.7131    7114.7538   -237.23754    531.46599   -185.25942   -3980.7744 
18705000    161.45792   -5040.8053   -4717.8695   -5040.8053            0    7153.2145    18.014671    22.499445    19.401516    7863.8246    6016.7975     7972.622    7470.2238     -74.6008    160.47377    208.16506   -3897.4973 
18706000    171.96562   -5055.5355    -4711.583   -5055.5355            0    6039.1393    17.821689    22.800068    19.396067    7881.3149    7960.5621    6429.2986    3727.5572    1868.2682    26.030755    1072.1259   -4017.4389 
18707000    169.59888   -5040.7291   -4701.5104   -5040.7291            0    7464.0702    17.794293    22.831172    19.322222    7849.9342    7969.8507    7674.5571    6747.8029    450.54944   -26.022881    76.464032   -3846.9995 
18708000    182.91583   -5051.0683    -4685.214   -5051.0683            0    7019.7988    17.719072    22.878443    19.333268    7837.4127    8618.1654    6258.7624    6182.4687    123.67769   -18.250972   -661.23393   -3882.8466 
18709000     173.5589   -5043.7474   -4696.6081   -5043.7474            0    7217.6655     17.92761     22.57995    19.379559    7844.9336    7216.1637    7815.3722    6621.4606   -1029.5598   -14.453045   -676.53152   -3870.8328 
18710000    167.86482   -5022.8526   -4687.1022   -5022.8526            0    7010.2983    17.930575    22.614545    19.371327    7854.9142    8814.9317    6820.3539    5395.6094   -757.26633   -9.5983823   -1739.2101   -3884.0314 
18711000    168.72442   -5031.6843   -4694.2147   -5031.6843            0    7312.4001    17.865215    22.859388    19.189597    7836.7987    6661.1594    7061.4723    8214.5687    887.89357   -705.86079    450.48768   -3858.4682 
18712000    163.25552   -5027.6037   -4701.0725   -5027.6037            0    6750.9922    17.955433     22.74684    19.259029    7865.9527     6512.196    6757.5233    6983.2572    1038.5556    915.80102   -55.824823   -3926.6199 
18713000    163.20135   -5028.0195   -4701.5967   -5028.0195            0    7420.2679    18.071071    22.563312     19.27417    7858.9117    6328.8851    7624.7184    8307.2002    229.57696   -94.043875    397.60486   -3851.1289 
18714000    165.13017   -5030.9875   -4700.7068   -5030.9875            0    8687.4283    17.859163    22.861595    19.095973    7796.6748    9053.8627    8582.4728    8425.9495   -890.37216    191.93848   -494.67127   -3712.8897 
18715000    158.27015    -5041.552   -4724.9921    -5041.552            0    7131.7551     17.82866    22.879731    19.205313    7834.1342    7491.3265    6974.4746    6929.4642    120.08317    150.49014    352.31083   -3910.1691 
18716000    169.48885   -5038.1188   -4699.1202   -5038.1188            0    8626.6453     17.96225     22.50244    19.337162    7815.9733    10513.995    8720.0469    6645.8942    579.56186    523.92043    116.97384   -3715.7865 
18717000    159.60299    -5041.162   -4721.9363    -5041.162            0    8042.4923    17.878247    22.798772    19.203808    7827.5118    9795.8328    7482.8437    6848.8003    376.93875     570.2437     -802.719   -3803.8357 
18718000    168.29587   -5019.9317   -4683.3191   -5019.9317            0     7533.629    17.775809    23.056335    19.138509    7843.8225    8334.3881    6677.2724    7589.2265   -679.22665    11.489686    1018.8367   -3821.5164 
18719000    168.25934   -5039.5496   -4703.0102   -5039.5496            0    8445.1816    17.923056    22.508734    19.365746    7812.6318    8376.9515    9214.4912    7744.1022    133.32232    31.087191   -1106.3974   -3740.7728 
18720000    163.79285   -5046.2218   -4718.6159   -5046.2218            0     7288.738    17.843437    22.718169    19.345665    7842.1564    10093.202    6628.9831    5144.0284    1004.4199   -1015.5654     79.42721   -3885.0043 
18721000    159.22998   -5029.2228   -4710.7432   -5029.2228            0    6850.6773    17.743282    23.065384    19.205849    7860.1012    6579.6498    7405.2045    6567.1777    142.54752   -36.346797    385.17902   -3925.4397 
18722000    161.69886   -5047.6722   -4724.2545   -5047.6722            0    7971.3676    17.940765    22.732255    19.151633    7810.6878    7268.7695    7607.0644    9038.2689   -1209.4435   -971.89119    -337.8609   -3816.2291 
18723000    163.56397   -5046.5161    -4719.368   -5046.5161            0    8155.1463    18.034129    22.574661    19.199531    7816.4045    7333.8643    8406.0276     8725.547     158.5508   -9.6275097    1117.7165   -3789.7283 
18724000    173.31022   -5044.5583   -4697.9165   -5044.5583            0    7661.9627    17.982156     22.81725    19.102932    7837.9972    7193.2535    7584.5682    8208.0663   -136.61561    656.93107   -392.49649   -3822.0841 
18725000     166.8378   -5042.4368   -4708.7406   -5042.4368            0    8481.0878      17.8948    22.866327    19.037904    7790.0884    7264.2025    8392.9075    9786.1535    775.52059   -301.24354   -393.76655   -3745.2004 
18726000    168.81838   -5044.8038   -4707.1462   -5044.8038            0     7790.997     18.09854    22.546216    19.195355    7832.7334     6691.356    7498.0888    9183.5463   -47.818246   -619.64928    226.27663   -3817.1621 
18727000    178.52732   -5014.4704   -4657.3937   -5014.4704            0    7607.2671    18.029676    22.839429    19.048702    7844.0173    7362.2979    7462.9951    7996.5083     -222.031   -168.06315    329.12942   -3787.1455 
18728000    173.79399   -5030.4259   -4682.8164   -5030.4259            0    7710.2589    17.905084    22.997727    19.100064    7864.9524      8308.21    6931.3035    7891.2632   -413.52989    -301.2531    373.60595   -3798.4323 
18729000    170.42068   -5029.3132   -4688.4508   -5029.3132            0    6953.5642    17.928168    22.804723    19.222244     7858.955    7041.2692    6345.0263     7474.397   -481.24135   -90.015286    1099.2352   -3891.4694 
18730000    170.76901   -5012.9551   -4671.3959   -5012.9551            0    7265.5392    18.027172    22.350258    19.486714      7851.43    6970.2026    8196.4741    6629.9409   -228.82651   -712.08865    -599.6925    -3839.455 
18731000     177.8516   -5033.1381   -4677.4129   -5033.1381            0    8328.8954    17.749058    22.933027    19.170077    7802.9807    9181.2972    7718.1755    8087.2134   -24.164313    45.318689     -1030.33   -3729.5974 
18732000    172.06352    -5038.444   -4694.2957    -5038.444            0    7368.7358    17.851982    23.135484    18.947783    7825.7042     6993.418    6482.1407    8630.6487   -393.16853   -293.63359   -1343.5861   -3853.3029 
18733000    167.85252   -5045.3517   -4709.6259   -5045.3517            0     8124.572    18.025895    22.657252    19.134906    7815.0258    6494.4329    8172.7295    9706.5535   -661.09111     176.0251     206.1098   -3783.6349 
18734000    173.07137    -5029.566   -4683.4019    -5029.566            0    8069.3536    18.155313    22.602521    19.163658     7863.919    5660.6467    9325.0386    9222.3754    409.32927    1011.9056    1135.0482   -3757.9504 
18735000     158.1778   -5041.8763   -4725.5011   -5041.8763            0    4881.1477    17.961506     22.89011    19.225642    7904.4465    5096.7266    4797.7596    4748.9569    727.38109   -1563.8898    976.57753    -4162.811 
18736000    170.69363   -5043.7829   -4702.3745   -5043.7829            0     8033.391     17.85403    23.004317    18.972362    7792.3241    7087.7341    8006.3592    9006.0799    1083.2225   -471.70722    441.86099   -3789.4354 
18737000    167.04974   -5041.7481    -4707.628   -5041.7481            0    7320.8449    18.010407     22.73708    19.163453     7847.512    5427.7366    7763.5373    8771.2607   -879.09033    223.71285   -685.70516   -3869.7725 
18738000     172.8464   -5032.3778   -4686.6636   -5032.3778            0    7253.4069    17.945805    22.780773    19.164089    7834.6493    7271.4577    7729.8446    6758.9185    -965.1182   -243.39779   -13.624517    -3857.887 
18739000    173.60091   -5039.1796   -4691.9564   -5039.1796            0    7786.5978    17.639079    23.206968    19.068434    7805.6544    8018.0733    5714.4406    9627.2794    659.12095     84.04445    231.21968   -3805.5498 
18740000    172.77966   -5034.0404   -4688.4598   -5034.0404            0    7660.1156    17.839718    22.813435    19.233664    7827.8177    8704.3681    6997.7847    7278.1941    537.66575   -111.65376   -26.374647   -3813.9757 
18741000    165.19099   -5042.7094    -4712.307   -5042.7094            0    8341.7356    17.911222    22.447925    19.451401    7820.8203    9475.3096    8509.9247    7039.9725   -319.26771   -634.93003    275.05363     -3760.86 
18742000     165.8243   -5042.8649   -4711.1958   -5042.8649            0    5478.4794    18.025767    22.821525    19.258455    7922.4566    4297.9064    5033.3074    7104.2244    785.44235    487.41479   -524.68726   -4078.2074 
18743000    175.26596   -5021.1886    -4670.635   -5021.1886            0    9835.4254    17.937209    22.720943    19.018306    7750.9163    8328.6404    10170.292    11007.344   -671.05396   -315.18321   -1010.6894   -3558.8468 
18744000    168.10167   -5021.4945   -4685.2704   -5021.4945            0    8292.2217    18.007868    22.843597    19.040434    7832.5586    5569.1784    9627.8863    9679.6003    806.72014   -68.522252   -231.06468   -3738.0513 
18745000     177.8171   -5029.4069   -4673.7507   -5029.4069            0    7095.1837     18.09304    22.661261    19.122721    7840.5278    5360.5191    8098.2322    7826.7998     148.1751    233.49858    351.00588   -3862.4444 
18746000    173.63872   -5058.8731   -4711.5742   -5058.8731            0    6304.4542    17.903929    22.808192    19.281649    7873.7816    6058.8271    6906.2923    5948.2431    1056.0771    605.69518    1795.2438   -3987.6273 
18747000    168.98312   -5036.3383   -4698.3512   -5036.3383            0    8614.8149    17.678228    22.883869    19.253207    7788.8126    10671.985    7578.1944    7594.2653    251.73533    271.08873   -917.62032   -3719.7785 
18748000    174.69804   -5036.4278   -4687.0101   -5036.4278            0     7674.395    17.929182    22.772419    19.237953      7854.68    6047.8997    8015.1984    8960.0868   -807.42116    269.55784     919.1572   -3807.8893 
18749000    173.23743    -5054.263   -4707.7667    -5054.263            0    8200.0777    18.004483    22.575744    19.248494    7823.8314    6709.1213    9392.0684    8499.0433   -505.13278    793.75193   -850.19749   -3772.1169 
18750000    167.87672   -5015.6713   -4679.8971   -5015.6713            0    6920.0407    17.977035    22.873388    19.167047     7881.407    5478.5931    7215.2304    8066.2985    1108.6507    772.58786    299.46282   -3884.4921 
Loop time of 447.997 on 64 procs for 250000 steps with 1008 atoms

Performance: 96.429 ns/day, 0.249 hours/ns, 558.039 timesteps/s
193.8% CPU use with 32 MPI tasks x 2 OpenMP threads

MPI task timing breakdown:
Section |  min time  |  avg time  |  max time  |%varavg| %total
---------------------------------------------------------------
Pair    | 36.805     | 39.878     | 42.882     |  19.5 |  8.90
Bond    | 1.0352     | 1.1929     | 1.4145     |   7.9 |  0.27
Kspace  | 217.59     | 221.79     | 230.74     |  21.0 | 49.51
Neigh   | 1.8716     | 1.9676     | 2.2517     |   7.6 |  0.44
Comm    | 68.814     | 77.23      | 81.01      |  32.8 | 17.24
Output  | 0.52292    | 0.5243     | 0.52617    |   0.1 |  0.12
Modify  | 87.351     | 90.348     | 91.831     |  10.5 | 20.17
Other   |            | 15.07      |            |       |  3.36

Nlocal:        31.5000 ave          38 max          25 min
Histogram: 1 0 3 7 7 3 9 0 1 1
Nghost:        2918.16 ave        2934 max        2895 min
Histogram: 1 1 0 4 5 5 6 4 2 4
Neighs:        10611.4 ave       12833 max        8425 min
Histogram: 1 0 3 4 10 4 8 0 1 1

Total # of neighbors = 339564
Ave neighs/atom = 336.86905
Ave special neighs/atom = 2.0000000
Neighbor list builds = 4548
Dangerous builds = 0

unfix		3
unfix		2
unfix		1

write_data	data.final.${pid}
write_data	data.final.0
System init for write_data ...
PPPM initialization ...
  extracting TIP4P info from pair style
  using 12-bit tables for long-range coulomb (../kspace.cpp:340)
  G vector (1/distance) = 0.38016886
  grid = 24 27 32
  stencil order = 5
  estimated absolute RMS force accuracy = 0.0023382496
  estimated relative force accuracy = 7.0415692e-06
  using double precision FFTW3
  3d grid and FFT values/proc = 5355 672
Last active /omp style is kspace_style pppm/tip4p/omp
WARNING: Not all mixed pair coeffs generated from mixing. Use write_data with 'pair ij' option to store all pair coeffs. (../write_data.cpp:312)

write_restart   restart.lmp.${pid}
write_restart   restart.lmp.0
System init for write_restart ...
PPPM initialization ...
  extracting TIP4P info from pair style
  using 12-bit tables for long-range coulomb (../kspace.cpp:340)
  G vector (1/distance) = 0.38016886
  grid = 24 27 32
  stencil order = 5
  estimated absolute RMS force accuracy = 0.0023382496
  estimated relative force accuracy = 7.0415692e-06
  using double precision FFTW3
  3d grid and FFT values/proc = 5355 672
Last active /omp style is kspace_style pppm/tip4p/omp
Total wall time: 0:07:28
