LAMMPS (30 Jul 2021)
Processor partition = 1
  using 2 OpenMP thread(s) per MPI task
using multi-threaded neighbor list subroutines
variable        pid world 0 1
variable        phase world IceIh IceIII

shell cd ${phase}
shell cd IceIII
include Restart.lmp
echo both
log log.lammps
#include		in.partitions
include		in.temp
variable        temperature equal 160.22
variable	tempDamp equal 100.0
include		in.pressure
variable        pressure equal 1837.7
variable        pressureDamp equal 1000.0 # This is 1 ps
include		in.seed
variable        seed equal 745823

units		real
atom_style	full

read_restart	restart.lmp.${pid}
read_restart	restart.lmp.1
Reading restart file ...
  restart file = 30 Jul 2021, LAMMPS = 30 Jul 2021
  restoring atom style full from restart
  orthogonal box = (-0.049936934 0.012264624 -0.12202125) to (20.049938 19.987736 20.822019)
  4 by 2 by 4 MPI processor grid
  restoring pair style lj/cut/tip4p/long/omp from restart
  restoring bond style harmonic/omp from restart
  restoring angle style harmonic/omp from restart
  972 atoms
  648 bonds
  324 angles
Finding 1-2 1-3 1-4 neighbors ...
  special bond factors lj:    0        0        0       
  special bond factors coul:  0        0        0       
     2 = max # of 1-2 neighbors
     1 = max # of 1-3 neighbors
     1 = max # of 1-4 neighbors
     2 = max # of special neighbors
  special bonds CPU = 0.002 seconds
  read_restart CPU = 0.006 seconds
include 	in.setup
variable	out_freq equal 1000
variable	out_freq2 equal 10000
variable	out_freq3 equal 1000

timestep	2.0

neigh_modify    delay 7 every 1

include		in.tip4p
# This is TIP4P/Ice

# create groups ###
group ox type 2
324 atoms in group ox
group hy type 1
648 atoms in group hy

# set charges - beside manually ###
set group ox charge -1.1794
Setting atom values ...
  324 settings made for charge
set group hy charge 0.5897
Setting atom values ...
  648 settings made for charge

# ### TIP3P Potential Parameters ###
pair_style lj/cut/tip4p/long/omp 2 1 1 1 0.1577 8.5
pair_coeff 1 1*2 0.000 0.000
pair_coeff 2 2 0.21084 3.1668
bond_style  harmonic
bond_coeff  1 450 0.9572
angle_style harmonic
angle_coeff 1 55 104.52
kspace_style pppm/tip4p/omp 1.0e-5
pair_modify tail yes

thermo          ${out_freq}
thermo          1000
thermo_style    custom step temp pe etotal epair emol press lx ly lz vol pxx pyy pzz pxy pxz pyz enthalpy

restart 	${out_freq3} restart.lmp.${pid} restart2.lmp.${pid}
restart 	1000 restart.lmp.${pid} restart2.lmp.${pid}
restart 	1000 restart.lmp.1 restart2.lmp.${pid}
restart 	1000 restart.lmp.1 restart2.lmp.1


include         in.dump
dump            myDump all atom ${out_freq2} dump.water.${pid}
dump            myDump all atom 10000 dump.water.${pid}
dump            myDump all atom 10000 dump.water.1
dump            myDump2 all dcd ${out_freq2} dump.dcd
dump            myDump2 all dcd 10000 dump.dcd
dump_modify     myDump append yes
dump_modify     myDump2 append yes


variable natoms 	equal  "count(all)"                        # NUMBER ATOMS
variable H      	equal  "enthalpy/v_natoms"                 # ENTHALPY-per-atom
variable Vol      	equal  "vol/v_natoms"                 # volume-per-atom
fix AVG all 		ave/time ${out_freq} 1 ${out_freq} v_Vol v_H file vol_enthalpy.dat
fix AVG all 		ave/time 1000 1 ${out_freq} v_Vol v_H file vol_enthalpy.dat
fix AVG all 		ave/time 1000 1 1000 v_Vol v_H file vol_enthalpy.dat


timer           timeout 02:55:00 every 1000
New timer settings: style=normal  mode=nosync  timeout=02:55:00

fix 		1 all shake 1e-6 200 0 b 1 a 1
Finding SHAKE clusters ...
       0 = # of size 2 clusters
       0 = # of size 3 clusters
       0 = # of size 4 clusters
     324 = # of frozen angles
  find clusters CPU = 0.005 seconds
fix             2 all nph aniso ${pressure} ${pressure} ${pressureDamp}
fix             2 all nph aniso 1837.7 ${pressure} ${pressureDamp}
fix             2 all nph aniso 1837.7 1837.7 ${pressureDamp}
fix             2 all nph aniso 1837.7 1837.7 1000
fix             3 all temp/csvr ${temperature} ${temperature} ${tempDamp} ${seed}
fix             3 all temp/csvr 160.22 ${temperature} ${tempDamp} ${seed}
fix             3 all temp/csvr 160.22 160.22 ${tempDamp} ${seed}
fix             3 all temp/csvr 160.22 160.22 100 ${seed}
fix             3 all temp/csvr 160.22 160.22 100 745823


run             250000
PPPM initialization ...
  extracting TIP4P info from pair style
  using 12-bit tables for long-range coulomb (../kspace.cpp:340)
  G vector (1/distance) = 0.3721053
  grid = 24 24 25
  stencil order = 5
  estimated absolute RMS force accuracy = 0.0034443997
  estimated relative force accuracy = 1.0372707e-05
  using double precision FFTW3
  3d grid and FFT values/proc = 3458 576
Last active /omp style is kspace_style pppm/tip4p/omp
Neighbor list info ...
  update every 1 steps, delay 7 steps, check yes
  max neighbors/atom: 2000, page size: 100000
  master list distance cutoff = 10.8154
  ghost atom cutoff = 10.8154
  binsize = 5.4077, bins = 4 4 4
  1 neighbor lists, perpetual/occasional/extra = 1 0 0
  (1) pair lj/cut/tip4p/long/omp, perpetual
      attributes: half, newton on, omp
      pair build: half/bin/newton/omp
      stencil: half/bin/3d
      bin: standard
Setting up Verlet run ...
  Unit style    : real
  Current step  : 18500000
  Time step     : 2
  Walltime left : 2:54:59.93
Per MPI rank memory allocation (min/avg/max) = 10.19 | 10.19 | 10.21 Mbytes
Step Temp PotEng TotEng E_pair E_mol Press Lx Ly Lz Volume Pxx Pyy Pzz Pxy Pxz Pyz Enthalpy 
18500000     172.4749    -4910.127   -4577.4946    -4910.127            0    2506.4465    20.099875    19.975472    20.944041    8409.1261    2068.2341     2294.849    3156.2566   -557.57787    979.72189   -1109.7232   -4270.1079 
18501000    153.97508   -4910.0489    -4613.095   -4910.0489            0    2687.8809    20.010583    20.208108    20.637533    8345.3234    2341.3885    2515.6433    3206.6109   -316.19953    1197.3528   -143.25254   -4285.9584 
18502000    165.17887   -4928.1464   -4609.5851   -4928.1464            0    723.80733    20.058301    20.048612     20.97658    8435.5451    273.07067    512.59659    1385.7547   -12.731976    640.89165   -516.74622   -4520.5396 
18503000    156.58619   -4919.5844   -4617.5948   -4919.5844            0     1037.204    20.192994    20.021601    20.766004    8395.6135    452.11726    1127.2143    1532.2805    266.04951   -112.69687   -24.530834   -4490.5981 
18504000     150.1388    -4927.607   -4638.0516    -4927.607            0    1055.3232    20.126032    19.840096    21.048126    8404.5673    1648.8064    684.45435    832.70886   -471.71624   -605.17913   -237.47037   -4508.6986 
18505000    157.60139   -4916.6172   -4612.6697   -4916.6172            0    2264.3753    20.137909    19.961844    20.806569    8364.0287    2940.3665    1181.4522    2671.3071   -11.700687    965.98135   -110.72542   -4336.4594 
18506000    159.95112   -4909.8749   -4601.3958   -4909.8749            0    782.82407    20.147478    20.025781    20.816904    8398.9752    698.83003   -25.915182    1675.5574   -358.50607   -686.37667   -204.03725   -4505.5073 
18507000    161.47661   -4921.0444   -4609.6232   -4921.0444            0    2716.4409    20.051413    19.761317    20.968676    8308.6768    740.90201    5744.2596     1664.161    253.15302    -41.71632   -347.50942   -4280.4625 
18508000    163.60285   -4927.4659   -4611.9441   -4927.4659            0    245.85733    20.084839    20.061112    20.931932    8433.9819    1226.3005    26.479952   -515.20843   -38.470319    -139.4285    239.71197   -4581.7034 
18509000    161.70957   -4904.5919   -4592.7214   -4904.5919            0    1733.4401     20.03987    20.013875    20.904865     8384.428    2425.5223    1846.1993    928.59861    459.46216   -273.48508    164.36316   -4380.7593 
18510000    160.83313   -4913.2677   -4603.0875   -4913.2677            0    852.99737    19.966722    20.026839    20.992727    8394.3684    1521.1685    881.87238    155.95123    402.90458    435.71396    510.71463   -4498.6608 
18511000    163.30724   -4921.4244   -4606.4726   -4921.4244            0    3080.8525    20.000997    19.929467    20.781223    8283.5872    2805.7598    2767.7096     3669.088    493.50892    -615.7497   -945.93797   -4234.2821 
18512000    164.58955   -4903.0947   -4585.6699   -4903.0947            0    2027.9125    20.041402    20.130711    20.850295    8412.0029    700.18889    3376.0809    2007.4677   -23.654685    75.724651    834.53586   -4336.8847 
18513000    173.63437   -4926.2539   -4591.3854   -4926.2539            0    982.85383    20.185647    19.975659    20.819342    8394.8088    1543.1336    906.84045    498.58743   -277.94136   -109.03546    640.08972    -4471.055 
18514000    163.07001   -4935.5268   -4621.0326   -4935.5268            0    1624.1812    20.008992    19.991696    20.990104    8396.3291    2511.9644    1587.8174     772.7618   -464.50418    -654.3595     693.6745   -4422.1486 
18515000    166.85657   -4941.0101   -4619.2132   -4941.0101            0    3331.5761    20.133119    19.859138    20.887537    8351.3887    3491.6381    3374.6157    3128.4744    -97.98084   -50.315979    -613.1072   -4213.4391 
18516000    160.25455    -4919.219   -4610.1546    -4919.219            0    1646.9493    19.995528    20.054467    20.845949    8359.2181    1182.4116    1961.4345    1797.0018   -416.24747   -444.94616    706.80431    -4409.374 
18517000    161.36463   -4926.3769   -4615.1717   -4926.3769            0    1264.1424    20.063068    19.920915    21.107886    8436.2875    1265.9437    2029.7619    496.72159    408.03745    159.31165    216.15676   -4459.6384 
18518000    156.46924   -4927.1362   -4625.3721   -4927.1362            0    2404.8603    20.073661    19.893583    20.780765    8298.5292    2585.2238    1811.7491     2817.608   -217.52493   -420.93813    218.15587   -4334.3226 
18519000    160.95716   -4923.2358   -4612.8164   -4923.2358            0    3375.9689    20.044313    20.000031    20.710126    8302.4178    2723.6902    3478.7011    3925.5154    272.26999    1102.3631    1255.2038   -4204.0465 
18520000    161.73434   -4928.0056   -4616.0873   -4928.0056            0    1440.2627    19.902993      20.0209    20.914632    8333.9756    1895.8291    1629.1843     795.7747   -606.96304    747.56507    1050.9304   -4441.0342 
18521000    167.46131   -4951.6889   -4628.7257   -4951.6889            0      698.072    20.014539    20.165993    20.911397    8440.1126    571.29938    643.59503    879.32158   -633.30339    1134.1304      466.589   -4542.7997 
18522000    163.36293   -4927.7974   -4612.7383   -4927.7974            0    1224.1741    20.037071       20.077    20.942622    8424.8879    1088.2749    1792.8141    791.43341    157.71789    940.79146    407.73388    -4462.326 
18523000    157.32757   -4931.6684    -4628.249   -4931.6684            0    2835.7773     19.85726    19.902148    21.131831    8351.3448     4231.917    1788.5928    2486.8219    279.85767   -193.88117    63.628945   -4282.8632 
18524000    170.54664   -4911.8774   -4582.9639   -4911.8774            0    1937.2687    20.215989     20.02127    20.743156    8395.7874    702.37755    2153.1732    2956.2554   -227.03889    72.080345    12.584403   -4345.7571 
18525000    168.27554   -4922.8858   -4598.3522   -4922.8858            0    1990.0825    20.135016    19.881965    20.971467    8395.3747    895.22282    3279.6517     1795.373   -541.11598    942.67965   -486.45659   -4354.6907 
18526000    168.41278   -4916.9997   -4592.2015   -4916.9997            0    1771.7169    20.222583    19.981054     20.72527    8374.4294    906.76579    1751.2202    2657.1647    46.231575    304.07625    563.09977   -4375.8173 
18527000      170.046   -4919.7811   -4591.8331   -4919.7811            0    1773.9179    20.080472     19.91683    21.010027    8402.7364    1915.1377      2234.07    1172.5461   -500.25027   -814.51193    -523.2913   -4374.4478 
18528000    156.27039   -4925.2135   -4623.8329   -4925.2135            0    1350.8689    20.055552    20.087727    20.891926    8416.7397    1411.5948     1609.854     1031.158    220.29293    221.13207    58.877604   -4458.0144 
18529000    162.35701   -4925.0798   -4611.9607   -4925.0798            0    740.65667    20.058107    20.118464    20.873586    8423.2912    268.05475     1257.438     696.4773    460.59614    832.59349   -336.41642   -4520.9747 
18530000    164.40628   -4914.0172   -4596.9458   -4914.0172            0    1235.1736    19.944735    20.085876    21.055526     8435.001    2642.5877    1168.9925   -106.05959   -392.40117    453.92373   -586.98275   -4444.9999 
18531000    166.79252   -4914.7531   -4593.0797   -4914.7531            0    2689.8424    20.066462    19.948433    20.777941     8317.295    1489.5195    3714.7377      2865.27   -225.62486    731.14717    924.93058    -4266.804 
18532000     163.5989   -4915.4306   -4599.9164   -4915.4306            0    805.21482    19.937568    20.048147    21.070616    8422.1628    2544.2458   -422.48319    293.88181   -355.45368   -1340.0225   -940.29392   -4501.0129 
18533000    167.30897   -4933.7665   -4611.0971   -4933.7665            0   -204.98107    20.113408    20.128409     20.84047    8437.2833   -508.89798   -238.37768    132.33245   -200.73817   -447.88505    1005.6935   -4636.3199 
18534000    159.10134   -4926.1137   -4619.2733   -4926.1137            0    3161.5739    19.944536    19.933126    20.968318    8336.1004    3546.3969    3016.5016    2921.8231   -87.747206    1751.6975   -872.25356   -4234.9098 
18535000    158.69405   -4948.1106   -4642.0558   -4948.1106            0    2077.4548     20.12825    19.961096    20.790406    8353.2091    1081.4027    2745.8397    2405.1219   -641.15516   -540.60264    413.01352    -4388.974 
18536000    158.25329   -4937.7763   -4632.5715   -4937.7763            0    429.75196    20.113681    19.933784    20.909932    8383.6652   -268.66824      1407.41    150.51408   -42.245929   -268.15159   -330.80423    -4580.027 
18537000    167.48628    -4938.434   -4615.4226    -4938.434            0    1447.1362    20.087688    20.039753    20.911139    8417.8276    2203.1215    1399.9473    738.33964   -34.211219    1416.9315   -745.41228   -4437.7644 
18538000    165.57914   -4920.1656   -4600.8323   -4920.1656            0    2616.9187    20.178389    19.926065    20.790295    8359.2765    1894.3026    2450.4574    3505.9962    48.434741    70.320121    687.42977   -4281.7999 
18539000    156.99163   -4929.6129   -4626.8414   -4929.6129            0     904.4456    20.055967    19.950689    20.948697    8382.2095   -306.74557    1980.2739    1039.8085   -161.50081    315.63829    196.10186   -4516.2766 
18540000    156.34415   -4915.9203   -4614.3974   -4915.9203            0    2224.2749    20.068105    19.970626      20.8146    8341.9218    2801.4502    540.56387    3330.8105   -840.78483    82.634011   -361.02408   -4343.7958 
18541000    170.86635   -4935.7353   -4606.2052   -4935.7353            0    2831.5175    20.023817    19.964425    20.836865    8329.8285    2720.9166    2839.1581    2934.4779   -115.08321    420.41429    89.594398   -4262.2268 
18542000    155.14367   -4920.7642   -4621.5566   -4920.7642            0    2167.6054    20.127848    19.922099    20.965869    8407.0825    2280.1331    2231.1513    1991.5318    37.075811    1335.8755   -1543.2088   -4355.7893 
18543000    163.97798   -4916.2958   -4600.0505   -4916.2958            0    2548.9103    20.204706    19.945673      20.7263    8352.6253    1220.4122    2806.4099    3619.9088   -224.30224    200.18808   -8.1040636   -4289.5564 
18544000    154.64683   -4928.4143   -4630.1649   -4928.4143            0    1880.0819    20.027565    19.871581    20.928713    8329.1963    1636.9218    2628.3192    1375.0046   -110.71836   -363.06234   -1380.5042   -4401.7862 
18545000    156.21568   -4934.7077   -4633.4326   -4934.7077            0    1556.7027    20.206736    20.015792    20.696313    8370.7029    1475.9247    1284.8586    1909.3247   -455.35022    120.02864   -842.25146   -4443.3933 
18546000    152.16257   -4919.4394   -4625.9811   -4919.4394            0    464.27129    20.152782    19.817436    21.231213    8479.2467    33.245277    1046.4372    313.13136   -408.25988    94.044081   -100.36255   -4568.5688 
18547000    162.12833   -4926.5667   -4613.8886   -4926.5667            0    1830.1148    20.113033    19.944639    20.729356    8315.5226    1970.2342    1584.2171    1935.8932    71.598174    825.56094    84.027446   -4391.9444 
18548000    147.97641   -4920.0276   -4634.6427   -4920.0276            0     2460.369    19.952935    19.876258    21.005154    8330.4272    2688.0159    2716.1574    1976.9337   -22.052701    250.00445   -552.49761   -4335.7306 
18549000     161.7594   -4919.1877   -4607.2211   -4919.1877            0    1135.7878    20.058679    20.082024    20.932143    8431.8621     816.6075    1357.4592    1233.2966   -130.61501   -475.12871   -4.4815342   -4467.5532 
18550000    147.67238   -4912.2028   -4627.4042   -4912.2028            0    2769.7659    19.976092    19.986273    21.002444     8385.176    3446.8049    2565.4643    2297.0286    256.00512   -376.98771   -1031.0138   -4288.6918 
18551000    172.19879   -4900.2379    -4568.138   -4900.2379            0    3818.0534    20.039073    20.059899     20.70489    8322.9881    3937.3524    2851.6239    4665.1839   -369.28495   -378.04883    137.12633   -4104.6941 
18552000    160.99525   -4932.5144   -4622.0216   -4932.5144            0     3496.811    19.982101    20.018709    20.909235    8364.0258    3088.3825    4032.9945    3369.0561   -434.84901   -576.06266    1426.9409    -4195.478 
18553000    148.56238   -4928.6886   -4642.1735   -4928.6886            0    40.479135    20.172447    20.033119    20.961041    8470.7135    70.628675    -488.4056    539.21433    248.93505    206.81684   -439.43539   -4637.1729 
18554000    161.94385   -4908.7203   -4596.3979   -4908.7203            0     2749.904    20.157285    19.933475    20.830089    8369.6284    3842.0208    1295.3935    3112.2976   -167.88642   -467.16821   -1007.2104   -4260.7379 
18555000    156.27054   -4911.1735   -4609.7926   -4911.1735            0     1888.204    19.997929    20.124276    20.926339     8421.676    1691.3354    2312.9619    1660.3146    156.17237    235.14161    126.28905   -4377.8805 
18556000    167.30434   -4906.7731   -4584.1126   -4906.7731            0    2550.7032    20.016891    20.012258    20.869638    8360.0259     3246.898    1756.1341    2649.0773   -110.12268   -271.15876    1138.5698   -4273.1247 
18557000    150.40218    -4925.892   -4635.8287    -4925.892            0    2080.4159    19.945496    20.213671    20.761763    8370.5554    2388.5432    1584.9572    2267.7472    -149.3521    -320.6558   -586.21348   -4381.8599 
18558000    168.32748   -4937.0612   -4612.4275   -4937.0612            0    2394.1849    19.902309    19.918403    21.166163    8390.7371    2694.4859    2775.6738     1712.395   -184.25065    1327.9166   -1013.5871   -4319.4504 
18559000    156.05707   -4918.9347   -4617.9655   -4918.9347            0    1686.9898    20.077961    20.042511    20.816705    8376.9077    1720.5488    1376.8317     1963.589    -187.4556    1257.5609   -430.59343   -4411.8683 
18560000    160.24263   -4925.9324    -4616.891   -4925.9324            0    770.13574    20.126173     19.93409    20.996498    8423.7307   -140.12515    2747.6514   -297.11903   -204.12045   -202.00591   -715.84734   -4522.2787 
18561000    162.60004   -4917.5391   -4603.9513   -4917.5391            0    3720.0691    19.846651    20.051524    20.804155    8279.1302    4989.6031    2324.0429    3846.5612   -347.55279   -808.17506   -1032.5149   -4154.7804 
18562000    163.48936   -4896.6701   -4581.3672   -4896.6701            0    2657.5004    19.877335    20.109413    20.857056    8337.0145     3816.581    2474.2684    1681.6519   -40.948938    422.00719   -888.21753   -4258.2502 
18563000    162.74685   -4907.6506   -4593.7796   -4907.6506            0    1404.1526    20.023175    20.081759    20.957188    8426.8972    2484.7032    588.79536    1138.9593   -104.97718   -207.78862   -615.48779   -4421.2126 
18564000    157.32366   -4913.8692   -4610.4573   -4913.8692            0    1348.1196    20.003918    20.084864    20.874773    8386.9824    2747.7042   -30.095031    1326.7497   -217.20423   -34.990637    213.25777   -4445.5613 
18565000    163.16429   -4934.1921   -4619.5161   -4934.1921            0    1955.3048    19.977044    20.086854    20.942195    8403.5993    1942.9757    1933.0884    1989.8502    186.18254    579.11671   -117.83849   -4379.8781 
18566000    165.28075   -4902.2788   -4583.5209   -4902.2788            0    2025.2142    20.020579    20.145157    20.837392    8404.0891    3200.7395    729.07315      2145.83    615.87231    664.01321   -780.50783   -4335.3005 
18567000    157.12422   -4928.1801   -4625.1528   -4928.1801            0    2633.4164    19.885814    20.027934    20.971088    8352.1926    1715.5021    4078.8835    2105.8634    -539.3685     194.4035    373.36359   -4304.3812 
18568000     154.8519   -4912.7106   -4614.0657   -4912.7106            0    256.37051    19.985198    20.058477    20.999281    8418.0369     550.0226    226.32019   -7.2312703   -340.35078   -81.165153   -1151.6548   -4582.5915 
18569000    152.64437   -4929.0305    -4634.643   -4929.0305            0    1520.8235    19.961937    20.223937    20.773984    8386.6436    2163.4789    738.73546     1660.256     642.6973    691.84857    104.82791   -4448.6302 
18570000    158.15184   -4913.4494   -4608.4402   -4913.4494            0    518.41822    20.053658     19.98638     21.08808    8452.1032   -66.738657     1173.452    448.54131    321.46507   -929.87836   -1209.0398   -4544.5373 
18571000    159.67843    -4914.739   -4606.7858    -4914.739            0    2117.7921    20.116093    19.940037     20.75873    8326.6512    1277.1534    3630.0341    1446.1889    216.80981    601.25071     580.0797   -4349.6103 
18572000    170.72945   -4908.5298   -4579.2637   -4908.5298            0    2009.4624    19.962882     20.01166    20.967496    8376.3136    3924.2316    761.65924    1342.4963    502.81969   -359.79558     272.6762   -4333.7879 
18573000    159.39946    -4944.006   -4636.5907    -4944.006            0    1512.3991    20.075252    20.186254    20.846961    8448.1087    662.19679    2186.0761    1688.9245   -5.1565462   -184.98853    573.63626   -4450.2526 
18574000    161.32786   -4939.8378   -4628.7034   -4939.8378            0    2208.1282    19.929529    20.016716    20.994545    8375.2222    2048.0841    2624.2487    1952.0518   -291.80104    530.66137    622.73719   -4358.9937 
18575000    161.15399   -4928.8302   -4618.0312   -4928.8302            0    2559.2276    20.029043    20.209597    20.588101    8333.6284    3143.1222    1913.8141    2620.7464     266.0273   -360.33846   -76.540017   -4306.9893 
18576000    167.91027   -4939.8087   -4615.9796   -4939.8087            0    1461.0524    19.909972    19.989068    20.992867    8354.7785    1794.2759    2832.0676   -243.18638   -481.40886    1162.4237   -520.57412   -4437.9564 
18577000    153.51516   -4938.0109    -4641.944   -4938.0109            0    1611.4351    19.989843    20.093688    20.897306    8393.8141    2304.6707    2056.9928    472.64185    -549.2145    617.11175   -179.78402   -4444.6799 
18578000    165.88537   -4907.1512   -4587.2273   -4907.1512            0    1819.2784     20.02881    20.179083    20.650686    8346.2434    1173.5564    498.88758    3785.3912    417.05613    1356.3454    672.87219   -4365.7822 
18579000    158.87039   -4932.0193   -4625.6244   -4932.0193            0    2116.3771    19.880514    19.953073    21.056553    8352.6574    1375.1517    3378.6242    1595.3554   -333.11926    -581.9863   -981.67465   -4367.8181 
18580000    169.45561   -4925.4732   -4598.6638   -4925.4732            0    3171.2625    20.136805    20.048344    20.713994    8362.4377    5087.3638    1095.3276    3331.0961   -201.04522   -151.92847   -599.53976   -4211.9044 
18581000    161.10162   -4917.1046   -4606.4066   -4917.1046            0    1570.2827    19.991531    19.915698    21.084534    8394.7081    648.80033    3241.0555    820.99229    253.59473    101.76062   -190.74842   -4414.1597 
18582000    156.62466   -4930.1155   -4628.0517   -4930.1155            0     3323.041    20.025666    20.021144    20.658376    8282.7017    3594.7074    2661.8566    3712.5591   -150.82992   -472.98778   -355.75435   -4226.6459 
18583000    162.21994   -4917.0053   -4604.1505   -4917.0053            0    1865.1845    20.052719    19.924722    20.982092     8383.287    1793.2703    2261.3796    1540.9036    297.11854    368.07064   -880.79649     -4376.11 
18584000    158.40652    -4888.116   -4582.6157    -4888.116            0    4191.3955    19.928547    19.932646    20.943833    8319.4911    5437.3509     3907.664    3229.1715    -50.63866   -821.14498   -260.94125   -4074.0685 
18585000    161.00597   -4937.0521   -4626.5385   -4937.0521            0    1276.2628    20.188061    20.020548    20.806589    8409.5244    13.398514    1530.4272    2284.9628    343.16705   -23.053869    -328.9771   -4470.0122 
18586000    159.29297   -4927.6247   -4620.4148   -4927.6247            0    1616.9168    20.079415    19.926106    21.087087    8437.0394     712.5452    2516.6085    1621.5966    40.204211    64.163747   -100.61439   -4421.4604 
18587000    154.07167   -4920.0996   -4622.9594   -4920.0996            0    1302.7068    20.189859    20.122447     20.64933    8389.1903      2092.53   -110.45074    1926.0411    48.642351   -614.35406    517.32162   -4463.5762 
18588000    158.84961   -4919.6636   -4613.3088   -4919.6636            0    2189.6442    20.127579    19.915012    21.041109    8434.1385    1382.3646    2974.5085    2212.0594   -70.465026   -394.61637    141.11002   -4343.9754 
18589000    159.20364   -4948.2885   -4641.2509   -4948.2885            0    1427.2619    20.143893    20.114726    20.642751    8364.2132    941.52654    1623.1091    1717.1501   -192.73443     -499.458   -82.567951   -4467.1486 
18590000    155.57392   -4920.0124    -4619.975   -4920.0124            0    590.14553    20.107743    19.849215    21.235493    8475.5722   -493.40065    1727.1018    536.73547    232.45353    653.25922    21.759589   -4547.0285 
18591000    152.94083   -4917.9337   -4622.9745   -4917.9337            0     3895.283    20.112399    19.995504    20.762967    8349.9845    3691.1234    3886.5737    4108.1519    245.26386   -472.34262    603.27615   -4148.6227 
18592000    164.37703   -4935.6373   -4618.6223   -4935.6373            0    1559.4822    20.172193    19.893953    20.999304    8427.1187    1503.8581    1177.8581    1996.7305    433.97076   -575.05756    217.10153   -4426.9606 
18593000     156.7751   -4900.2309   -4597.8769   -4900.2309            0    1436.8909    20.149738    20.132435    20.880351    8470.3917    688.55019    1236.3318    2385.7907   -262.85004    528.14534   -22.282019   -4420.3749 
18594000    155.71487   -4911.2818   -4610.9726   -4911.2818            0    1807.8603    20.162226    19.884884    20.893914    8376.8619    1013.4953    3055.9929    1354.0928   -99.470852   -1103.4099    362.14191     -4390.11 
18595000    154.11169   -4933.4289   -4636.2115   -4933.4289            0    2616.7054     20.02376    19.895442    20.912231    8331.0469    2173.8526    3214.7638    2461.4999   -777.00054   -302.57667    517.80021   -4318.2824 
18596000    164.27028   -4918.2691     -4601.46   -4918.2691            0    2063.3473    20.172159    19.834479    20.883216    8355.4636    1184.2886    2652.6128    2353.1407   -250.48322   -325.92796    404.87061    -4350.029 
18597000    160.14137   -4923.0417   -4614.1956   -4923.0417            0    2824.1725    20.075138    20.039859    20.750054    8347.8075    2102.1778    2952.9337    3417.4059    556.38438   -158.81885    96.344254   -4270.3689 
18598000     162.0083   -4927.6903   -4615.2436   -4927.6903            0    1864.5499    19.916963    20.060538    20.978953    8382.0358    1975.0076    1588.9627    2029.6793   -350.87279   -405.44049   -373.84024   -4387.3147 
18599000    161.15745   -4927.4492   -4616.6435   -4927.4492            0    3005.4361    20.022179    20.037661     20.75265    8325.9141    2256.9748    4125.8759    2633.4577    13.153778    634.05374    658.22282   -4251.7087 
18600000    153.22931   -4909.4333   -4613.9177   -4909.4333            0    1949.0947    20.102531    19.909073    20.920034    8372.6739   -290.01995    3927.6568    2209.6471    453.76851   -709.73053   -454.33648   -4375.9199 
18601000    152.05585   -4932.3784   -4639.1259   -4932.3784            0    1320.1867    20.188043    19.925082    20.807067    8369.6096    920.71937    1618.5302    1421.3105   -42.371962    393.04784    531.65464    -4477.981 
18602000    160.32401   -4920.5395   -4611.3412   -4920.5395            0    1838.7491    20.029202    20.028054    20.967475    8411.0173    2834.7702    2224.0354    457.44181   -409.40703   -439.90403    464.65579   -4385.7891 
18603000     159.1805   -4910.1654   -4603.1724   -4910.1654            0    558.78029     20.11474    20.192419    20.704831    8409.5832    478.62454   -126.44717    1324.1635    299.85168    -675.6594    -101.5044   -4534.6407 
18604000    158.35963   -4911.6028   -4606.1929   -4911.6028            0    2190.8388    20.010269    19.891808    20.997274    8357.7639    2439.2921     2586.215    1547.0095    420.98582  -0.91503752    476.48407   -4339.1529 
18605000    155.70482    -4890.381   -4590.0912    -4890.381            0     1277.969    20.108598    19.980275    20.908181    8400.3909    169.34535    2557.5537    1107.0078   -335.07961    1430.5426   -4.6553498   -4433.5258 
18606000    150.73215   -4922.8404   -4632.1408   -4922.8404            0    1216.5779     19.99705    20.111372    20.912999    8410.5417    1132.2436     922.9312    1594.5589    738.34259    894.37867    1588.6776   -4482.9164 
18607000    160.38735   -4922.1816   -4612.8611   -4922.1816            0    1569.0784    20.021945    19.957411    21.032812    8404.4211    1723.0966    2070.9451    913.19357   -68.252863   -551.41563    1354.1578   -4420.5394 
18608000    156.30988   -4905.9931   -4604.5363   -4905.9931            0     1456.389    20.164286    20.049496    20.929634    8461.5112     453.7641    1886.7703    2028.6325   -818.52034    649.49187    -770.4466   -4424.8144 
18609000     162.0195   -4924.5711   -4612.1029   -4924.5711            0    2195.0156    20.061053    19.962055    20.852713    8350.6746    1963.5665    2241.2039    2380.2764    333.82911    133.91611   -312.99156   -4344.7806 
18610000    157.50417   -4899.4452   -4595.6852   -4899.4452            0    2090.2228    19.981381    19.921239    21.002898    8360.2848    3153.1124    1898.6948    1218.8613    370.48865    700.16948    428.77861   -4340.8323 
18611000     167.3952   -4914.5099   -4591.6741   -4914.5099            0    1466.2471    20.220633    19.899685    20.690118    8325.3773    145.00635    2082.4985    2171.2366   -354.07659    821.03655    183.60303   -4413.6467 
18612000      161.766   -4915.6512   -4603.6718   -4915.6512            0     737.1775    20.112572    20.031518    20.897389    8419.2517   -546.65295    1990.4016    767.78391   -163.11427    346.47733    172.06181   -4513.1566 
18613000    163.78599   -4941.4167   -4625.5416   -4941.4167            0    2934.1924    20.071202    19.955597    20.782147    8323.9321    2978.9113    2483.7612    3339.9048   -261.71602   -284.23945   -641.30865   -4269.3424 
18614000     161.7845   -4917.9641    -4605.949   -4917.9641            0    2006.9603    20.027775    20.040298    20.943199    8405.8165    2690.5179    1210.5098     2119.853   -184.53813   -197.22458   -542.96201   -4359.9154 
18615000     163.7272   -4930.8345   -4615.0728   -4930.8345            0    1431.0993    20.041693    20.090277    20.933839    8428.8672    1909.9311     413.1581    1970.2086    424.06838   -429.03909    446.34366   -4439.1529 
18616000    155.88934   -4933.5043   -4632.8586   -4933.5043            0    1713.9595    20.111182    20.014069    20.761417    8356.6072    1321.2094    781.65873    3039.0103   -429.53644    250.79343    1090.6147    -4423.974 
18617000    154.26368    -4935.509   -4637.9985    -4935.509            0    2173.2658    20.075545    20.068036    20.868957    8407.6177    2348.1702    2073.9076    2097.7196    395.09873   -1115.6107   -403.71567   -4371.5203 
18618000    156.68854   -4925.6984   -4623.5114   -4925.6984            0    2270.5324    19.975363    19.962487    20.899062    8333.6667    2676.8022    2866.2954    1268.4995   -308.84079    436.75984    366.14726   -4347.5555 
18619000    156.71133   -4932.7301   -4630.4991   -4932.7301            0    2065.7006    20.052023    19.932578    20.890173    8349.5626    2287.7652    1956.1587    1953.1779   -170.49803    1130.5729    1569.7335   -4378.9591 
18620000    162.35822   -4922.4391   -4609.3176   -4922.4391            0    2708.4845    20.075822    19.839448    21.002157    8365.0168    2304.8142    2586.4407    3234.1986    265.18219   -566.03115   -482.69856   -4278.8955 
18621000    159.13067   -4943.1538   -4636.2569   -4943.1538            0    1164.7448    20.141574    20.093285    20.741872     8394.451    749.94203    835.69063    1908.6017   -785.29131     916.3247    432.97413   -4493.6637 
18622000    164.90264   -4909.1514   -4591.1228   -4909.1514            0     1878.624    20.038691    19.868863    20.937456    8336.1645    1115.7862    3026.6972    1493.3887     417.1351   -495.46498   -1339.2152   -4362.7302 
18623000    160.81203   -4923.3772   -4613.2377   -4923.3772            0    1211.0292    20.081435    20.013634    20.814869    8365.5478    1125.9483    980.98895    1526.1504    178.32836   -1453.9901    27.669713   -4465.4886 
18624000    160.04656    -4918.961   -4610.2977    -4918.961            0    1874.7594     20.10377    19.912229    20.928585    8377.9402     2311.438    1773.4421    1539.3981   -254.66625    1108.4309   -295.10214   -4381.2327 
18625000    161.69903   -4907.7419   -4595.8917   -4907.7419            0    1630.6093    20.058643     20.11865    20.883625    8427.6461    112.19302    2418.9097    2360.7251     117.6317   -1190.5255    1454.3848   -4395.4758 
18626000    149.39951   -4922.4759   -4634.3464   -4922.4759            0    1172.9407    20.194399    20.113076    20.766349    8434.6986    1092.4473    894.00524    1532.3696    98.742999    1014.2634   -449.29724   -4490.0613 
18627000    162.25515   -4931.5561   -4618.6334   -4931.5561            0    1616.9922    20.091073    19.982703    21.035798    8445.3245    1319.3817    2381.2119    1150.3832    237.29599    -959.9489     217.9828   -4419.4743 
18628000    156.26968    -4920.684   -4619.3048    -4920.684            0    2214.2518    20.157703    20.016399    20.657535    8334.9975    348.67845    2863.2604    3430.8165   -254.94066   -501.07285   -296.28607   -4350.1462 
18629000    171.79108   -4918.5806   -4587.2671   -4918.5806            0    103.85648    20.031815    19.926929    21.159256    8446.1942    791.83842    666.90359   -1147.1726    442.67897    82.455255   -217.09296   -4574.4741 
18630000    148.02388   -4923.5712   -4638.0947   -4923.5712            0    1745.4066    20.136153    20.041427    20.789496    8389.7515    1057.1398     1658.253    2520.8269   -140.61232    211.79748   -450.61295   -4424.5339 
18631000    148.47087   -4928.4457   -4642.1072   -4928.4457            0    1072.6418    20.013625    20.077228    20.898393     8397.353    2016.1187    95.872785     1105.934   -81.363264   -58.950123    367.51842   -4510.7442 
18632000    164.99136   -4911.9735   -4593.7738   -4911.9735            0    1836.6383     20.04561     20.05342    20.949531     8421.356    348.06147    2429.1936    2732.6597     559.6167   -755.03841    478.60326   -4368.2036 
18633000    161.81265   -4902.8153    -4590.746   -4902.8153            0    2661.2502    19.991395    20.005656    20.774891    8308.7297     2585.913    2874.7862    2523.0513   -413.66864    539.94833   -1260.1409   -4268.2709 
18634000    154.42104   -4919.2117   -4621.3977   -4919.2117            0    2466.8051    20.021505    20.001693    20.904715    8371.5856    3370.0091    1077.4728    2952.9333    513.41577   -992.05282    1581.9461    -4320.223 
18635000    167.72242   -4942.1507   -4618.6839   -4942.1507            0    739.87494     20.16835    20.168647     20.69894    8419.6731     220.7791   -203.42045    2202.2661    7.6215545    836.40194    -1178.787    -4527.833 
18636000    162.51843    -4921.676   -4608.2456    -4921.676            0    163.29536    20.037821     19.99807    21.050573    8435.3377     62.95181    53.542106    373.39216    405.59696   -735.16815   -860.92222   -4588.1569 
18637000    156.79649   -4930.7355   -4628.3402   -4930.7355            0     1824.124    20.152651    20.124058    20.680368    8386.9877    1992.2748    1399.3188    2080.7783    247.04049    319.80395   -12.970811   -4405.2214 
18638000    156.13964   -4925.6294   -4624.5009   -4925.6294            0    1571.7667    19.990145    19.991088    20.932937    8365.3199    3093.2811    529.20812    1092.8107    57.055542    219.94772    388.35987    -4432.746 
18639000    147.00866   -4924.0176   -4640.4991   -4924.0176            0    1335.3471    20.084949    19.926318    20.881462    8357.1593    1752.6946     596.4349    1656.9117   -114.37629    428.83509    531.67529   -4477.7462 
18640000    163.64096   -4921.0915   -4605.4962   -4921.0915            0    1268.7208    20.278978    19.905323    20.792074    8392.9204    580.60141    1526.8464    1698.7148   -242.47342    566.60161   -344.06284    -4450.202 
18641000    152.63312   -4912.4562   -4618.0904   -4912.4562            0    1421.8194    20.151033    19.853734    21.053619    8422.9893    979.18902     1718.956    1567.3133     216.4502   -477.70769    867.26199   -4443.4332 
18642000    161.65915   -4927.0908   -4615.3175   -4927.0908            0    1828.6305    20.157146    19.912046    20.851282    8369.0795    2503.9208     1531.862    1450.1086   -131.55094     602.1508     305.7813   -4392.1251 
18643000    158.46421   -4924.4651   -4618.8536   -4924.4651            0    1041.9054    20.162665    19.944563    20.790145    8360.4563    2576.3082   -27.070778    576.47865    471.07171     222.2115    2.6026586   -4491.8154 
18644000     161.8202   -4922.0997   -4610.0159   -4922.0997            0    1124.2874    20.198522    19.812151    20.978978     8395.287   -173.36502    2426.9064    1119.3207   -39.826712   -289.20236   -327.20803   -4472.3619 
18645000    160.79291   -4927.5622   -4617.4595   -4927.5622            0    1715.2327    19.966325    20.003342    20.893061    8344.5467    1676.3115    1827.1468    1642.2398   -326.69265     346.3801    866.06755   -4408.7214 
18646000    157.34186   -4929.4265   -4625.9795   -4929.4265            0    1150.3056    20.086322    20.080688     20.86855    8417.2705    330.05126    671.84151    2449.0241   -49.599039   -994.69479   -223.63783   -4484.7712 
18647000    153.03405   -4930.8108   -4635.6718   -4930.8108            0    1945.3832     20.10577    20.058933    20.758141    8371.7643    798.73654    2428.7962     2608.617   -131.46405    152.96122   -418.18341    -4398.153 
18648000     158.6947   -4934.9585   -4628.9024   -4934.9585            0    1314.0676     19.96857    19.991539    21.108946    8426.7428    1730.0661   -193.47137    2405.6082   -222.28763    1168.2738    263.20679   -4467.4096 
18649000    170.47422   -4930.4406   -4601.6667   -4930.4406            0    1850.7413    20.007715    20.125971     20.69475    8333.2521    924.97213    2019.6964    2607.5552    72.382525   -728.54277    457.60077   -4376.7426 
18650000    154.90122   -4920.8215   -4622.0814   -4920.8215            0    1070.7148    19.920291    20.066542    21.045788    8412.6611    2112.6104    868.56713    230.96683    432.24378   -702.03305   -1264.8134   -4490.7154 
18651000    163.07975   -4908.2737   -4593.7607   -4908.2737            0    442.45899    20.131791    20.125531    20.852762     8448.767    854.60874   -102.30156    575.06981   -128.93108    1541.8298    928.28632   -4539.2424 
18652000    165.04772   -4924.4815   -4606.1731   -4924.4815            0    1848.0449    20.086271    19.929849    21.016065    8413.0742    984.97693     3449.716    1109.4417   -730.85233   -1055.6644    112.21378   -4379.4253 
18653000    164.55529   -4936.2853   -4618.9266   -4936.2853            0    2843.5679    20.010494    19.978143    20.847662    8334.3226     2201.766    3546.3388    2782.5989   -304.37366    492.83945   -135.15143   -4273.2979 
18654000    172.21227   -4944.3193   -4612.1935   -4944.3193            0    2026.3078     20.01071    19.945532    20.818794    8309.2856    2629.0493    1575.6684    1874.2057    88.284696    706.70023   -807.30819   -4366.6406 
18655000    159.53427   -4924.6017   -4616.9265   -4924.6017            0    2024.6787    19.881047    20.023745    20.992847    8357.1058    1526.0901     3342.037     1205.909   -669.46122   -928.64552   -1076.7776    -4370.159 
18656000    154.84035   -4930.5614   -4631.9388   -4930.5614            0    1195.8394    20.200975    20.036847    20.810785    8423.4532    2190.8619    213.71696    1182.9393   -406.96908    1013.7046    682.93326    -4485.033 
18657000    164.78481   -4927.0933   -4609.2919   -4927.0933            0    751.06888    20.150514    19.893723    21.109775    8462.2493   -49.541568    125.59729    2177.1509     155.0176   -204.62875    449.51679   -4516.6001 
18658000    152.59692   -4931.7774   -4637.4814   -4931.7774            0    1626.1428    20.052435    20.107937    20.754486    8368.4807    1672.7196    679.09397    2526.6147   -284.25926    -459.3447    308.90619   -4439.0177 
18659000    155.38287    -4926.025   -4626.3561    -4926.025            0    2153.8173    19.970676      19.9355    20.891045    8317.2561    3236.9126    1695.5462    1528.9929   -707.57306    1103.3339    50.842803    -4365.101 
18660000    163.97387   -4931.4696   -4615.2322   -4931.4696            0    1019.2578    20.043179    20.018984    20.966803    8412.8055    928.52751    1578.4687    550.77728   -0.2128512    445.49691   -228.71631   -4490.1773 
18661000    161.37493   -4935.9941    -4624.769   -4935.9941            0    1364.6618     20.13431    19.921175    20.819857    8350.8261    2030.2334    1144.7152    919.03672    329.68771    121.17539    -420.4468   -4458.5693 
18662000    158.95095     -4917.23   -4610.6797     -4917.23            0    835.35582    20.030788    19.977916    20.915696    8369.9051    1637.5646    369.13549    499.36733   -155.11134     27.62218   -607.72278   -4508.7108 
18663000    165.30838   -4927.7298   -4608.9187   -4927.7298            0    1505.4797    20.180047    19.924355    20.996385    8442.1091    775.30262    3048.3818    692.75455    38.317718    1170.7484    339.39161   -4423.5648 
18664000    163.84662   -4946.1083   -4630.1163   -4946.1083            0    1678.8859     20.13509    19.986855    20.770139    8358.6751    2005.9929    1228.0843    1802.5806    549.73105    545.32631   -60.768517   -4425.4556 
18665000    162.48829   -4929.4844   -4616.1121   -4929.4844            0    2224.8565    19.908883    20.147813    20.806152    8345.7729    3229.4053    1322.2709    2122.8934   -525.62899     1382.771    336.18982   -4345.3147 
18666000    158.04389   -4911.3741   -4606.5732   -4911.3741            0    1575.4531    19.904358    20.159755    21.057455    8449.6611    3105.1003    1193.7593    427.49971    341.26602    874.89936    257.78663   -4412.4307 
18667000    158.74383   -4923.0409     -4616.89   -4923.0409            0    1866.8029    19.946519    20.112932    20.835414    8358.8135    2122.5571    1823.4298    1654.4218   -10.986251    19.144119   -179.70163    -4389.318 
18668000    169.52745   -4916.0058   -4589.0579   -4916.0058            0     2483.613    20.010348     19.87304    20.953952    8332.6837    2943.7029    2402.9216    2104.2144    82.252178   -106.79926   -698.56582   -4287.2402 
18669000    167.84057   -4915.3337   -4591.6391   -4915.3337            0    2773.6854    20.016584    19.914324    20.957204    8353.8924    2512.5647    3148.7135    2659.7782   -31.103633    758.04003   -136.17171   -4253.7128 
18670000    160.31485   -4918.2784   -4609.0978   -4918.2784            0    3744.3262    20.016701    20.002018    20.688482    8283.1392    4179.3139    2924.6839    4128.9809   -353.61858    309.88623    122.00169   -4156.7791 
18671000    164.69418   -4917.6785   -4600.0519   -4917.6785            0     2461.636     19.86642    19.947835     20.93915    8298.0189     3840.482     1435.766      2108.66   -151.61967    499.83307   -635.05106   -4302.1494 
18672000     160.0114   -4929.1107   -4620.5152   -4929.1107            0    2229.2828    20.219028    20.052662    20.654255    8374.1711    900.07704    3253.9206    2533.8508    -530.0785    674.55653    845.67969   -4348.2558 
18673000    151.96122   -4920.1722   -4627.1022   -4920.1722            0    3110.1613     19.95353    20.010748    21.040264    8401.0631    4050.4922    2452.8932    2827.0986   -1.1417864    3.7112098    498.73308   -4246.0425 
18674000    161.00427   -4922.3173   -4611.8071   -4922.3173            0    1854.4182     20.11713    20.104866    20.679535    8363.8833     514.3582    2291.7072    2757.1893   -591.92599   -715.90183    503.94886   -4385.6076 
18675000    159.56082    -4926.442   -4618.7155    -4926.442            0    2433.4775    20.011371    19.882012    21.110198    8399.0367     2374.765    2647.0294    2278.6382     9.277051   -1677.9204    453.81932   -4320.6356 
18676000    159.72457   -4940.1573    -4632.115   -4940.1573            0    2168.8767    19.921645    20.004755    20.770142    8277.4757    3173.0907    1234.9828    2098.5566    -247.1381    304.03129   -494.97892   -4370.2915 
18677000    160.85733   -4922.8876   -4612.6607   -4922.8876            0     1354.058     19.97881    20.152279    20.849403    8394.3561    2597.8952    355.71345    1108.5653   -327.30216    298.70875    527.28589   -4446.8928 
18678000    160.41055   -4923.8412    -4614.476   -4923.8412            0     1818.938    19.928283    20.042353    21.013591    8393.0319    3366.5553    1044.1955    1046.0632    19.145137   -345.86153   -188.73509   -4391.8311 
18679000    166.61181   -4915.7648   -4594.4399   -4915.7648            0    1054.9998    20.068878    20.173219    20.753407     8402.097   -901.58326    2709.2341    1357.3486   -13.476607    450.75543   -1354.0435   -4465.1645 
18680000    160.69634   -4915.1239   -4605.2075   -4915.1239            0     2444.642    19.990717    19.916965    21.136146    8415.4497    2338.0337    2990.0791    2005.8132   -68.974723   -278.78882    460.03026   -4305.1748 
18681000    157.32477    -4925.526   -4622.1119    -4925.526            0    2358.2803    20.044701    20.076026    20.722304    8339.0266    2783.7427    1544.5906    2746.5075    491.91577    267.06259    -491.7689    -4335.307 
18682000    160.68385   -4921.1375   -4611.2452   -4921.1375            0    3648.0984    19.892023    20.019815    20.818985    8290.8407    4297.1661    3260.8204    3386.3086    -158.3678    146.10674    1143.1129   -4170.1412 
18683000    162.16556   -4947.9041   -4635.1541   -4947.9041            0    1546.6772     19.95778    20.073672    20.895268    8371.1863    2701.3156     1124.334    814.38205   -377.31354   -457.11914    653.35274   -4446.3278 
18684000    161.61117   -4942.4135   -4630.7328   -4942.4135            0    2123.4102    20.120125    19.968377    20.755375    8338.8094    1477.0344    2294.6343    2598.5618   -120.79945   -868.18124   -951.95936   -4372.4985 
18685000    170.70059   -4925.0171   -4595.8067   -4925.0171            0    3003.3158    20.005197    19.944473    20.848166    8318.2743     2635.226    4181.4266    2193.2948    190.06325   -731.63675    309.08194   -4231.4639 
18686000    160.98092   -4907.5649   -4597.0997   -4907.5649            0    1294.0565    20.182311    19.962802    20.880858    8412.8034     1755.499    1340.3133    786.35731    485.60069    1213.5851    159.12252   -4438.3291 
18687000    153.31406   -4917.1393   -4621.4602   -4917.1393            0    321.06836    20.133781    20.117071    20.860572    8449.2139     246.5166   -75.891722    792.58019    -615.0357   -475.65951    720.76794   -4581.8972 
18688000    165.29082   -4925.1195   -4606.3422   -4925.1195            0    1725.3175    20.036775    19.926864    20.946619    8363.3585    908.43312    2900.4285    1367.0908   -397.99361   -418.17377    100.11902   -4395.9035 
18689000    155.88671   -4937.5925   -4636.9519   -4937.5925            0    2904.6203    20.120794    19.974537    20.740184    8335.5534    3736.9127    2078.1282    2898.8201    45.308778   -34.756354   -1492.7873   -4283.8503 
18690000    172.44784   -4922.8666   -4590.2864   -4922.8666            0    2108.9784    19.978267    19.920149    21.055547    8379.4775    1423.1234     2731.325    2172.4867   -321.99328   -445.55459    221.75221   -4332.5564 
18691000    157.03972   -4914.7302   -4611.8659   -4914.7302            0    677.06816    20.011189    19.987345    20.934212    8373.0682    1687.7825    100.57134    242.85065   -47.876655   -105.87698   -59.876847   -4529.1873 
18692000    155.82114    -4908.659   -4608.1449    -4908.659            0    2002.8477    20.124505    20.016798    20.845869    8397.3026    3113.3597    61.339145    2833.8444   -1.0001619    406.07527   -89.667698    -4362.864 
18693000    158.10494    -4913.698   -4608.7793    -4913.698            0    1941.4061    19.914844    19.978942    21.024225    8365.0666     1644.707    2604.0474    1575.4639   -74.125748    331.90947   -1156.3777   -4371.9357 
18694000    168.29535   -4921.7968    -4597.225   -4921.7968            0    2771.3654    19.954088    20.074375    20.643863    8269.2265    2832.0553    2709.5867    2772.4543    218.38291    874.14985   -599.61037   -4263.0034 
18695000    157.47531   -4916.1742   -4612.4698   -4916.1742            0     2304.957    19.993951    20.052159    20.892421     8376.229    1616.2998    2710.1169    2588.4543    442.38939    610.38735   -773.75331   -4330.8992 
18696000    158.51885   -4923.2458   -4617.5289   -4923.2458            0     1335.807    20.012215    20.024753    21.108717       8459.1    708.46905     2400.647    898.30508     399.6254    329.83254      411.551    -4452.734 
18697000    160.00346   -4926.8122   -4618.2321   -4926.8122            0    1483.2588    20.177237     20.08612    20.703966     8390.953    438.93194    2091.4482    1919.3964   -439.73985   -595.46564    806.44734   -4436.7206 
18698000    157.28783   -4912.5785   -4609.2357   -4912.5785            0    1942.8851    20.101839    19.852618    21.004535    8382.3661    2750.2172    2156.7799    921.65814   -501.27178    463.51027    991.90139   -4371.7215 
18699000    162.03688   -4908.1347   -4595.6329   -4908.1347            0    1750.3743    20.235384     19.92309    20.731522    8357.9416     229.1735    2192.1734     2829.776    -165.4784    38.258713    615.83751   -4382.2763 
18700000    158.67556   -4928.5843   -4622.5651   -4928.5843            0    1568.4247    20.134515     19.95168    20.816818    8362.4777    560.59835    2091.5732    2053.1026    465.44191    384.07135   -1576.4186   -4431.2829 
18701000    157.06703   -4919.0855   -4616.1686   -4919.0855            0    2631.9921    19.996125    19.840024    21.133808    8384.2803    3029.0428    3429.3638    1437.5696    32.238331    574.31839   -203.76467   -4294.3388 
18702000    159.88357   -4919.8585   -4611.5096   -4919.8585            0    2718.6596    20.122974    19.917662    20.780954      8329.06    1597.6898    3602.8781    2955.4111   -393.78862    851.06515    567.27299   -4281.2718 
18703000    158.76043    -4936.684   -4630.5011    -4936.684            0    3102.8829     19.93439    19.961882     21.10493    8398.2411    3085.2361    4262.5078    1960.9049   -344.37331   -753.29667    402.41667   -4250.4608 
18704000    153.42107   -4928.1479   -4632.2625   -4928.1479            0     205.2967    20.131624    20.047779    20.855811    8417.2876   -1370.7429    71.986805    1914.6462   -47.945792    215.19681    842.64294   -4607.0608 
18705000    149.47854   -4923.5215   -4635.2396   -4923.5215            0    464.61191    20.084111    20.072742    20.978477      8457.33    119.99696    945.39021    328.44856   -306.10526    95.098082    91.309942   -4577.9336 
18706000    154.23221   -4927.6445   -4630.1948   -4927.6445            0    2983.7272    20.108499    19.848699    20.839452    8317.5995    2487.1228    3741.4157    2722.6432     72.68264    1534.3683   -1263.4336   -4268.2577 
18707000    161.80744   -4926.9008   -4614.8415   -4926.9008            0    1134.8229    20.063434    20.067162     20.80851     8377.843    -224.9213    1951.2924    1678.0976   -10.188129    41.909809    152.00059   -4476.1863 
18708000    162.90466   -4927.2249   -4613.0495   -4927.2249            0    1226.7847    19.986833    20.059466    21.042521    8436.4767    1531.7065    1251.8841    896.76344   -83.245907    828.96513    1975.9488   -4462.1092 
18709000    164.34766    -4931.578   -4614.6198    -4931.578            0    2575.1879     20.06085    19.912751    20.768183    8296.1976     1563.919     3986.246    2175.3988   -518.18095   -52.449515    152.90861   -4303.0438 
18710000    163.36744    -4909.088   -4594.0201    -4909.088            0     1825.134    20.052681     19.84921    20.818681    8286.4574    2863.9153    245.41201    2366.0746    137.94284   -121.58162   -1245.9753   -4373.4536 
18711000    167.49833   -4939.1641   -4616.1295   -4939.1641            0    2712.6874    20.083127     19.91968    20.856658    8343.6947     2341.861    3148.8246    2647.3767   -354.37117      230.422   -2245.2787   -4286.0382 
18712000    160.19167   -4920.0541    -4611.111   -4920.0541            0    1741.7332    20.118055    19.949113    20.820814      8356.17    2015.7563    2056.0195    1153.4237    256.74822   -1658.9449    332.79756   -4398.8527 
18713000    165.95049   -4918.7403   -4598.6908   -4918.7403            0    2005.6401    20.053179    19.885418    21.060616    8398.2545    3039.1031    1119.2041     1858.613    120.29176    361.21928   -856.11393   -4353.0401 
18714000    161.20103   -4920.2701   -4609.3803   -4920.2701            0    1839.2526    20.220991    19.942875    20.805914    8390.2903    544.15929    2885.3694    2088.2291   -29.490765   -217.02033    1470.1196   -4384.3224 
18715000    149.92605   -4932.5224   -4643.3774   -4932.5224            0    2068.7194    20.046039    20.016859    20.876253    8376.7789    2716.9324    1425.0597     2064.166   -530.25466   -1184.5895   -128.04833   -4390.6488 
18716000     155.9411   -4923.9161   -4623.1706   -4923.9161            0    1831.1329    20.013178    20.031329    20.884207     8372.281     2347.383    1251.6531    1894.3627   -114.77194    859.22355   -672.46983   -4399.5872 
18717000    154.10502   -4933.3305    -4636.126   -4933.3305            0    2077.9364     19.97189    20.058789    20.872333    8361.7057    3305.8707     1289.785    1638.1536    -83.71037    668.85043    399.78237   -4382.7281 
18718000    161.34512    -4912.742   -4601.5743    -4912.742            0    1319.5298    20.071604    20.026781    20.973733    8430.8033     2850.906    770.02663    337.65667   -539.82456    -375.3912    350.93354    -4439.332 
18719000    163.44473   -4922.7939    -4607.577   -4922.7939            0    1463.2981    20.161793    20.078635    20.797023    8419.0779   -320.31841    2787.5244    1922.6882   -378.62888    401.02159   -844.89824    -4427.908 
18720000    157.00574   -4938.9797   -4636.1809   -4938.9797            0    1664.0758    20.056757    20.013434    20.954261    8411.1362    1778.5188    1482.8499    1730.8587   -439.40977   -337.28399    838.52692   -4432.0524 
18721000    164.10833   -4935.4465   -4618.9497   -4935.4465            0    544.28579    20.174162    19.979442    20.813223    8389.1545    85.981895    799.30632    747.56916     113.4163   -994.45822    111.53506   -4552.3579 
18722000    157.75255   -4934.0386   -4629.7995   -4934.0386            0    1264.1866    20.148181    19.859916    20.944205     8380.639   -394.30754    3272.3076    914.55979    -93.15611    657.85151    348.74117   -4475.2868 
18723000    162.58762   -4932.2627   -4618.6988   -4932.2627            0    2231.8884    20.208923    19.936354    20.704649    8341.7426    2698.8992    1450.8505    2545.9154   -444.96548   -29.535004    199.48879   -4347.1768 
18724000    157.03645   -4919.4199   -4616.5619   -4919.4199            0    1052.1824    20.070583    20.025643    20.829372     8371.873   -1160.1938    2749.6583    1567.0828   -263.34296    -4.020852   -79.783656   -4488.0955 
18725000    155.95397   -4928.0288   -4627.2584   -4928.0288            0    835.91896    19.965163    20.009186    20.982216    8382.1155     2467.715   -438.13748    478.17933    87.210503    22.869096    576.07065   -4525.0719 
18726000    151.39423   -4906.5892   -4614.6127   -4906.5892            0     1452.149    20.127963     20.01819    20.905968    8423.5449   -898.91336    2659.0753    2596.2851   -214.23071    262.71102    209.05728    -4436.218 
18727000    174.98475   -4911.0118    -4573.539   -4911.0118            0    1271.0239     20.20309    20.125388    20.577179    8366.5788    383.38095    1341.2426    2088.4482   0.29106559    404.88313   -1376.4559   -4418.4513 
18728000    160.89722   -4910.7411   -4600.4373   -4910.7411            0    1907.9033    20.040038    19.989615    20.978164    8403.6983    1394.5708    1864.7643    2464.3747    167.45161    404.57311    808.91546    -4366.606 
18729000    165.38889   -4926.0566   -4607.0902   -4926.0566            0    2377.3874    20.177543    19.792184    21.016133    8392.9533    609.45669    4356.2704    2166.4351   -35.191178   -164.92875    -118.9059   -4316.0918 
18730000    170.13983   -4924.5468   -4596.4178   -4924.5468            0    1442.7495    20.080938    20.168168    20.753697    8405.1584     1098.194      1667.04    1563.0146   -129.01022    -701.1874   -1493.1084   -4419.5647 
18731000     163.5767   -4915.7041   -4600.2327   -4915.7041            0    1247.6548    19.986693    19.849627     21.23621     8425.008    1798.2908    2139.2264   -194.55279    236.09247     590.8965   -1095.3803   -4446.9332 
18732000    162.77721   -4925.5181   -4611.5885   -4925.5181            0    2157.6242    20.292327     19.93063    20.660767    8356.0168    799.32415     2495.987    3177.5615    496.28345    137.81072   -869.99685    -4348.652 
18733000    163.00674   -4941.4032    -4627.031   -4941.4032            0   -72.725729    20.108297    20.013587    21.034463    8465.0913    1055.5746   -1530.6405    256.88869    358.15862    304.25176   -71.803451   -4636.0093 
18734000    163.26672   -4917.8082   -4602.9346   -4917.8082            0    771.15074    20.215336    20.080892    20.769928    8431.3857     284.9611    724.88283    1303.6083   -548.87811    564.82051   -864.48721   -4508.1115 
18735000    160.12906    -4937.638   -4628.8156    -4937.638            0     858.1893    19.980309    19.874221    21.244158    8435.9081    820.47978    2093.9154   -339.82729   -450.45334    3.4533369   -362.81112   -4523.2334 
18736000    158.27169   -4936.0143   -4630.7741   -4936.0143            0    1989.0934      20.0848    20.040861    20.740937    8348.5732    2258.9416    927.14256     2781.196   -213.04088   -908.59156    1081.1922   -4388.5912 
18737000    160.14014   -4928.9387    -4620.095   -4928.9387            0    2040.2217    19.976704    20.020453     20.91586    8365.1451         3577    567.89877    1975.7663   -185.42336   -851.50102   -340.04639   -4371.1939 
18738000    157.37262   -4907.9626   -4604.4563   -4907.9626            0    1756.3534    20.148407    20.078356    20.719224    8381.8974     3046.615    378.89748    1843.5476   -457.18945     446.4479   -251.73867   -4389.7572 
18739000    160.33239   -4928.0925    -4618.878   -4928.0925            0     906.0259    20.012108     19.97117    21.065148    8419.0066       1257.1    1522.8562    -61.87854   -229.83815    1403.2755    173.61067   -4507.6339 
18740000    165.45759   -4928.6797   -4609.5808   -4928.6797            0    855.79435    20.122951    20.008935    20.880186    8407.1735    423.31414    803.67188     1340.397    201.65667    374.15452   -1185.6707   -4504.6519 
18741000    156.32972   -4928.9495   -4627.4545   -4928.9495            0    1769.6736    20.097434    20.092948     20.60739    8321.6079    798.46317    2528.4724    1982.0854    217.93643    516.54913    454.56738   -4412.6831 
18742000    163.62344   -4929.2265   -4613.6649   -4929.2265            0    2456.4186     19.85493    19.979374    20.969426     8318.342    2217.7804    3494.1157    1657.3597    -121.4677    279.26975    29.776539   -4315.6658 
18743000    166.83363   -4920.6636   -4598.9109   -4920.6636            0    3738.0309    20.110698    20.102737    20.489425    8283.4663    4782.2159    1736.3865    4695.4904   -1105.9864    -929.7298   -668.09385   -4147.3349 
18744000    158.49687   -4910.7883   -4605.1138   -4910.7883            0    1749.3335    20.022819    20.014111    20.983086     8408.739    1677.9002    2323.1166    1246.9836   -1063.3612   -320.45675   -586.98251   -4390.5881 
18745000    168.71341    -4916.047   -4590.6691    -4916.047            0    2092.9119    20.022155    20.077524    20.821068    8369.9715    1764.1828    1813.7324    2700.8206   -606.95318    1608.9249    230.14976   -4335.1926 
18746000    157.66169   -4907.4396   -4603.3758   -4907.4396            0    1260.1106    20.048838    20.001147    20.915004    8386.9114    594.11224    1447.8072    1738.4125    201.77328   -315.99423    -914.5698    -4449.246 
18747000    159.33748   -4926.2318    -4618.936   -4926.2318            0    2414.3858    20.072737    20.020553     20.90822      8402.33    2010.8058    2813.8227     2418.529   -302.80974    90.370061     715.4532   -4323.0787 
18748000    168.72833   -4923.0078   -4597.6011   -4923.0078            0    1381.9312    19.974167    20.054873    21.073965    8441.7958    1882.9727    1048.3877    1214.4332    138.42104   -888.10364    242.26647   -4427.4647 
18749000    148.54316   -4918.8438   -4632.3658   -4918.8438            0    1360.1414    20.087859    20.132521    20.829899    8424.0118    292.64374    2102.5122    1685.2683   -502.90456    735.69539   -662.48445   -4465.2649 
18750000    162.38189   -4897.9808   -4584.8137   -4897.9808            0    1815.8531    20.014923    20.066192    20.985154    8428.1266    3223.8517    805.61152    1418.0962    28.530554    307.59107    323.20101    -4361.617 
Loop time of 380.042 on 64 procs for 250000 steps with 972 atoms

Performance: 113.672 ns/day, 0.211 hours/ns, 657.822 timesteps/s
194.6% CPU use with 32 MPI tasks x 2 OpenMP threads

MPI task timing breakdown:
Section |  min time  |  avg time  |  max time  |%varavg| %total
---------------------------------------------------------------
Pair    | 26.139     | 35.203     | 45.572     |  73.7 |  9.26
Bond    | 1.0804     | 1.2388     | 1.5457     |  10.7 |  0.33
Kspace  | 165.18     | 178.35     | 196.07     |  47.4 | 46.93
Neigh   | 1.1751     | 1.2835     | 1.5584     |  10.3 |  0.34
Comm    | 61.076     | 71.722     | 76.62      |  45.9 | 18.87
Output  | 0.67963    | 0.67994    | 0.68162    |   0.0 |  0.18
Modify  | 73.477     | 75.26      | 77.641     |  12.1 | 19.80
Other   |            | 16.3       |            |       |  4.29

Nlocal:        30.3750 ave          37 max          22 min
Histogram: 1 2 2 1 3 4 10 5 3 1
Nghost:        2567.66 ave        2596 max        2535 min
Histogram: 2 3 2 3 4 6 2 4 2 4
Neighs:        9358.09 ave       12434 max        6341 min
Histogram: 3 0 3 6 4 5 6 3 1 1

Total # of neighbors = 299459
Ave neighs/atom = 308.08539
Ave special neighs/atom = 2.0000000
Neighbor list builds = 3713
Dangerous builds = 0

unfix		3
unfix		2
unfix		1

write_data	data.final.${pid}
write_data	data.final.1
System init for write_data ...
PPPM initialization ...
  extracting TIP4P info from pair style
  using 12-bit tables for long-range coulomb (../kspace.cpp:340)
  G vector (1/distance) = 0.37204653
  grid = 24 24 25
  stencil order = 5
  estimated absolute RMS force accuracy = 0.003451421
  estimated relative force accuracy = 1.0393852e-05
  using double precision FFTW3
  3d grid and FFT values/proc = 3458 576
Last active /omp style is kspace_style pppm/tip4p/omp
WARNING: Not all mixed pair coeffs generated from mixing. Use write_data with 'pair ij' option to store all pair coeffs. (../write_data.cpp:312)

write_restart   restart.lmp.${pid}
write_restart   restart.lmp.1
System init for write_restart ...
PPPM initialization ...
  extracting TIP4P info from pair style
  using 12-bit tables for long-range coulomb (../kspace.cpp:340)
  G vector (1/distance) = 0.37204653
  grid = 24 24 25
  stencil order = 5
  estimated absolute RMS force accuracy = 0.003451421
  estimated relative force accuracy = 1.0393852e-05
  using double precision FFTW3
  3d grid and FFT values/proc = 3458 576
Last active /omp style is kspace_style pppm/tip4p/omp
Total wall time: 0:06:20
