#include		in.partitions
include		in.temp
variable        temperature equal 60.10
variable	tempDamp equal 100.0
include		in.pressure
variable        pressure equal 2018.1
variable        pressureDamp equal 1000.0 # This is 1 ps
include		in.seed
variable        seed equal 745823

units		real
atom_style	full
box tilt large
read_restart	restart.lmp.${pid}
read_restart	restart.lmp.0
Reading restart file ...
  restart file = 30 Jul 2021, LAMMPS = 30 Jul 2021
  restoring atom style full from restart
  triclinic box = (-10.617073 -9.1607008 0.11753416) to (12.597073 12.150699 21.742465) with tilt (-9.0307345 1.9795734 2.8469156)
  2 by 2 by 4 MPI processor grid
  restoring pair style lj/cut/tip4p/long/omp from restart
  restoring bond style harmonic/omp from restart
  restoring angle style harmonic/omp from restart
  1296 atoms
  864 bonds
  432 angles
Finding 1-2 1-3 1-4 neighbors ...
  special bond factors lj:    0        0        0       
  special bond factors coul:  0        0        0       
     2 = max # of 1-2 neighbors
     1 = max # of 1-3 neighbors
     1 = max # of 1-4 neighbors
     2 = max # of special neighbors
  special bonds CPU = 0.001 seconds
  read_restart CPU = 0.005 seconds
include 	in.setup
variable	out_freq equal 1000
variable	out_freq2 equal 10000
variable	out_freq3 equal 1000

timestep	2.0

neigh_modify    delay 7 every 1

include		in.tip4p
# This is TIP4P/Ice

# create groups ###
group ox type 2
432 atoms in group ox
group hy type 1
864 atoms in group hy

# set charges - beside manually ###
set group ox charge -1.1794
Setting atom values ...
  432 settings made for charge
set group hy charge 0.5897
Setting atom values ...
  864 settings made for charge

# ### TIP3P Potential Parameters ###
pair_style lj/cut/tip4p/long/omp 2 1 1 1 0.1577 8.5
pair_coeff 1 1*2 0.000 0.000
pair_coeff 2 2 0.21084 3.1668
bond_style  harmonic
bond_coeff  1 450 0.9572
angle_style harmonic
angle_coeff 1 55 104.52
kspace_style pppm/tip4p/omp 1.0e-5
pair_modify tail yes

thermo          ${out_freq}
thermo          1000
thermo_style    custom step temp pe etotal epair emol press lx ly lz vol pxx pyy pzz pxy pxz pyz enthalpy

restart 	${out_freq3} restart.lmp.${pid} restart2.lmp.${pid}
restart 	1000 restart.lmp.${pid} restart2.lmp.${pid}
restart 	1000 restart.lmp.0 restart2.lmp.${pid}
restart 	1000 restart.lmp.0 restart2.lmp.0


include         in.dump
dump            myDump all atom ${out_freq2} dump.water.${pid}
dump            myDump all atom 10000 dump.water.${pid}
dump            myDump all atom 10000 dump.water.0
dump            myDump2 all dcd ${out_freq2} dump.dcd
dump            myDump2 all dcd 10000 dump.dcd
dump_modify     myDump append yes
dump_modify     myDump2 append yes


variable natoms 	equal  "count(all)"                        # NUMBER ATOMS
variable H      	equal  "enthalpy/v_natoms"                 # ENTHALPY-per-atom
variable Vol      	equal  "vol/v_natoms"                 # volume-per-atom
fix AVG all 		ave/time ${out_freq} 1 ${out_freq} v_Vol v_H file vol_enthalpy.dat
fix AVG all 		ave/time 1000 1 ${out_freq} v_Vol v_H file vol_enthalpy.dat
fix AVG all 		ave/time 1000 1 1000 v_Vol v_H file vol_enthalpy.dat


timer           timeout 10:00:00 every 1000
New timer settings: style=normal  mode=nosync  timeout=10:00:00

fix 		1 all shake 1e-6 200 0 b 1 a 1
       0 = # of size 2 clusters
       0 = # of size 3 clusters
       0 = # of size 4 clusters
     432 = # of frozen angles
  find clusters CPU = 0.000 seconds
fix             2 all nph tri ${pressure} ${pressure} ${pressureDamp}
fix             2 all nph tri 2018.1 ${pressure} ${pressureDamp}
fix             2 all nph tri 2018.1 2018.1 ${pressureDamp}
fix             2 all nph tri 2018.1 2018.1 1000
fix             3 all temp/csvr ${temperature} ${temperature} ${tempDamp} ${seed}
fix             3 all temp/csvr 60.1 ${temperature} ${tempDamp} ${seed}
fix             3 all temp/csvr 60.1 60.1 ${tempDamp} ${seed}
fix             3 all temp/csvr 60.1 60.1 100 ${seed}
fix             3 all temp/csvr 60.1 60.1 100 745823


run             250000
PPPM initialization ...
  extracting TIP4P info from pair style
  using 12-bit tables for long-range coulomb (../kspace.cpp:340)
  G vector (1/distance) = 0.3673847
  grid = 30 40 32
  stencil order = 5
  estimated absolute RMS force accuracy = 0.0045373319
  estimated relative force accuracy = 1.366404e-05
  using double precision FFTW3
  3d grid and FFT values/proc = 11832 2400
Last active /omp style is kspace_style pppm/tip4p/omp
Neighbor list info ...
  update every 1 steps, delay 7 steps, check yes
  max neighbors/atom: 2000, page size: 100000
  master list distance cutoff = 10.8154
  ghost atom cutoff = 10.8154
  binsize = 5.4077, bins = 7 5 4
  1 neighbor lists, perpetual/occasional/extra = 1 0 0
  (1) pair lj/cut/tip4p/long/omp, perpetual
      attributes: half, newton on, omp
      pair build: half/bin/newton/tri/omp
      stencil: half/bin/3d/tri
      bin: standard
Per MPI rank memory allocation (min/avg/max) = 12.76 | 12.77 | 12.77 Mbytes
Step Temp PotEng TotEng E_pair E_mol Press Lx Ly Lz Volume Pxx Pyy Pzz Pxy Pxz Pyz Enthalpy 
36250000    62.137866   -6861.4335   -6701.5876   -6861.4335            0    2055.6185    23.214146      21.3114    21.624931    10698.414    2589.6869    1482.1632    2095.0054   -899.48466    206.93587    88.180366   -6380.8589 
36251000    60.596783   -6868.9056    -6713.024   -6868.9056            0    2145.8484    23.245379    21.249571    21.635113    10686.758    1707.4471    2442.7537    2287.3445    103.20054   -647.75098       223.06    -6378.582 
36252000    60.049954   -6867.7057   -6713.2309   -6867.7057            0    1992.2136    23.259932    21.242436    21.643789    10694.144    1850.8616    1869.9776    2255.8015    286.43456    209.03809    164.66783    -6402.519 
36253000    62.250681    -6874.188   -6714.0519    -6874.188            0    2100.3145    23.217365    21.301938    21.603246    10684.423     1736.412    2663.7037    1900.8278    188.16109    -82.23203   -548.40922   -6386.7781 
36254000    58.059875   -6870.7014   -6721.3459   -6870.7014            0    1636.6325    23.131553    21.417105    21.604374    10703.042    1613.1374    1659.7749    1636.9851   -285.94877   -382.05063    387.55989   -6465.8792 
36255000    57.463745   -6864.0025   -6716.1805   -6864.0025            0     1546.023    23.144495    21.392951    21.637759    10713.483    2289.2809    759.90955    1588.8785     316.5063   -307.31992    527.15604   -6474.6219 
36256000    62.005306    -6868.877   -6709.3721    -6868.877            0    2102.9724    23.200652    21.313737    21.602924    10682.486    2205.7456    2320.4454     1782.726    83.828937   -207.49725   -313.80967   -6381.7436 
36257000    59.297753   -6871.0828   -6718.5429   -6871.0828            0    2073.9529    23.155352    21.267438    21.693405    10683.026    2573.0724    2386.4307    1262.3557    105.34998   -208.65651    41.588336    -6395.419 
36258000    59.842729   -6865.5696   -6711.6279   -6865.5696            0    2191.4461    23.209296    21.307192    21.601307    10682.385    2311.2199    2247.9052    2015.2134    388.02182    -254.8678   -251.36351   -6370.2189 
36259000    62.031226   -6861.7868   -6702.2152   -6861.7868            0    2068.1027      23.2011    21.318634    21.607605    10687.462    1752.0304    2658.2707    1794.0071    156.74757   -261.42524   -256.57195    -6379.869 
36260000     61.47412   -6868.6094    -6710.471   -6868.6094            0     1861.394    23.146945    21.311472    21.675337    10692.345    2076.7903    2126.5536    1380.8381    325.33653   -129.23457    120.33234    -6420.211 
36261000    60.449507   -6868.6167   -6713.1141   -6868.6167            0     1561.476    23.228474     21.34467    21.595741    10707.257    1317.7515    1668.1483     1698.528    137.23816    14.405691    275.18833   -6469.2828 
36262000    61.519668   -6862.5528   -6704.2972   -6862.5528            0    2377.2013    23.157844    21.265789    21.689647    10681.497    2225.6897    2914.9235    1990.9908    562.16644   -616.81967     345.8958   -6333.9799 
36263000    62.518845   -6868.6848   -6707.8589   -6868.6848            0    2203.5563    23.275254    21.313193    21.563959    10697.233    1210.5684    2773.8593    2626.2412    152.60292   -111.17781   -277.49752   -6364.0861 
36264000    60.729579   -6877.2231        -6721   -6877.2231            0    2034.0548    23.180393    21.312179    21.635271    10688.358    2403.4448    1349.4763    2349.2435    227.63588   -282.62517    616.85225    -6403.934 
36265000    61.786471   -6872.1557   -6713.2137   -6872.1557            0    1983.1803    23.201643    21.349404    21.601628    10700.177    2220.7676    1642.0777    2086.6956    121.23779    168.84241   -299.33171   -6403.7362 
36266000    60.920536   -6870.4893    -6713.775   -6870.4893            0    2246.2461    23.148477    21.330167     21.61737    10673.811    2424.2542    2550.6558    1763.8282   -127.17392    308.44884    228.99566   -6364.1095 
36267000    59.351007   -6865.6862   -6713.0094   -6865.6862            0    1744.9215    23.146573    21.402105    21.613604    10707.064    2259.4141    1148.6302    1826.7201   -225.19562   -109.32749    269.13581   -6440.5372 
36268000     59.24348   -6875.4076   -6723.0073   -6875.4076            0    1882.6521    23.157383    21.378843    21.598242    10692.815    1846.5028    1788.1271    2013.3263    22.046269    -275.2826   -277.43089   -6429.4195 
36269000    59.124291   -6868.7843   -6716.6907   -6868.7843            0    1830.8391    23.171067    21.319163    21.637368    10688.595    1686.1429    2089.4288    1716.9456    222.06126   -24.833582    415.58161   -6431.2955 
36270000    59.410201   -6869.5808   -6716.7517   -6869.5808            0    2285.3588     23.19526    21.326032    21.571585    10670.662    2820.9882    1747.0732    2288.0151   -15.631393   -332.75699    89.433559   -6361.1027 
36271000    59.136472   -6874.2273   -6722.1024   -6874.2273            0    2150.9452    23.166838     21.26735    21.677071    10680.233    2049.3833    2346.2912    2057.1611    261.87239   -365.74479    125.79423   -6387.0706 
36272000    62.843609   -6873.5973   -6711.9359   -6873.5973            0    1653.4125    23.287696    21.316069    21.558984    10701.926    1393.9816    1886.0647    1680.1913   -613.47573   -111.64599   -316.86887   -6453.8769 
36273000     58.91769   -6868.9599   -6717.3977   -6868.9599            0    1898.0472    23.257629    21.267038    21.614361    10690.914    1071.9498    2103.2827    2518.9091   -73.249785    633.52691    269.44608   -6421.4618 
36274000    62.050722     -6855.69   -6696.0683     -6855.69            0    2303.9844    23.226302    21.237378    21.647209    10677.827    1525.2883    2898.2035    2488.4615   -57.047613    280.14977   -289.79819     -6337.28 
36275000    62.016207   -6863.2235   -6703.6906   -6863.2235            0    1976.0947    23.264432    21.287658    21.587588    10691.151    1907.6836    1133.6792    2886.9213   -460.08475    514.13789    467.71285    -6395.579 
36276000    64.094133   -6871.6072   -6706.7289   -6871.6072            0     1984.078    23.194664    21.280751    21.662616    10692.664    2094.9673    2019.9773    1837.2893   -291.62877   -267.46013    685.27004   -6397.3288 
36277000    61.206989   -6866.6084   -6709.1571   -6866.6084            0     2197.449    23.179412    21.343692    21.569999    10671.417    2509.3066    2003.6616    2079.3788   -658.66465   -52.924167   -47.130276   -6367.1645 
36278000    58.633882   -6871.6999   -6720.8678   -6871.6999            0    2384.7405    23.153818    21.335733     21.60419    10672.549    2106.1234    2482.2918    2565.8062    305.87402    182.29291   -43.383296   -6349.6873 
36279000    60.231489   -6873.1478    -6718.206   -6873.1478            0    1475.7568    23.182159     21.32271    21.660868    10707.107    1759.2757    1656.2387    1011.7559    551.69857    348.12587   -250.71014   -6487.7634 
36280000    64.895076   -6871.2214   -6704.2828   -6871.2214            0    2018.1458    23.162414    21.335702     21.62542    10686.988    2179.8284     1658.894    2215.7149    308.74394   -512.74931    13.233537   -6389.7371 
36281000    61.428061   -6864.7394   -6706.7194   -6864.7394            0    2051.3924    23.116089    21.375472    21.638271    10691.844    2093.1536    1883.8159    2177.2078   -939.73109    249.98578    599.62558   -6386.8467 
36282000    65.840676   -6878.7847   -6709.4136   -6878.7847            0    2273.3588    23.186972    21.362079    21.546328    10672.369    1735.3473    2350.9762     2733.753    595.52803    175.57528   -86.912267   -6355.5754 
36283000     59.80019    -6867.083   -6713.2506    -6867.083            0    2264.7554    23.141986    21.332216    21.630514    10678.332    2274.7471    2063.8142    2455.7048   -270.68659    688.73796    -465.1117   -6360.5546 
36284000    59.155644    -6868.303   -6716.1288    -6868.303            0    2071.9555    23.107423    21.379229    21.633464     10687.34    2599.1814    1648.7515    1967.9336    628.28599    368.60023   -280.55333   -6393.1857 
36285000    60.468328   -6873.8774   -6718.3263   -6873.8774            0    2550.8572     23.09146    21.377259    21.591273    10658.146    2968.9099    2711.3674    1972.2942   -389.73887   -286.86926   -6.9507238   -6321.8258 
36286000    60.012692   -6871.3162   -6716.9372   -6871.3162            0    1984.2116    23.117854    21.380531    21.631793    10691.989    2672.3022     2039.149    1241.1836   -515.68039   -318.94724   -326.38719   -6407.5358 
36287000    59.850932   -6866.2198    -6712.257   -6866.2198            0    1202.1595    23.215352    21.348527    21.640001    10725.078    1479.5787    1057.6044    1069.2955   -27.402291   -392.68214    -231.1872   -6524.2221 
36288000     57.52904   -6862.6677   -6714.6777   -6862.6677            0    2124.9103    23.321324    21.200179    21.614008    10686.317    1578.3075    2861.8625    1934.5608   -116.55101   -76.373008    362.03453   -6383.5127 
36289000    61.769701   -6871.9138    -6713.015   -6871.9138            0    2260.3221      23.2606    21.211449    21.644168    10679.038    1839.5078    3260.3365     1681.122   -411.72646   -561.89857   -30.261139   -6360.9861 
36290000    59.648962   -6871.1397   -6717.6963   -6871.1397            0    1570.4815    23.317801     21.17961    21.661108    10697.596    672.84723     2304.713    1733.8843   -193.69556   -9.7772912   -129.31215   -6472.6801 
36291000    57.468729   -6865.0816   -6717.2468   -6865.0816            0     2282.568    23.265176    21.214404    21.629559    10675.417    2067.2095    2513.2773    2267.2172    196.00569   -240.58358   -157.31347   -6361.8737 
36292000    59.367539   -6867.0801   -6714.3607   -6867.0801            0    1972.4756    23.192719    21.274336    21.668609    10691.502    1849.6384    2295.4986    1772.2899   -483.35233    64.861832   -169.68173   -6406.8033 
36293000    59.944795   -6865.2242   -6711.0198   -6865.2242            0    1828.5492    23.232004    21.344101    21.562642    10692.186    1337.3111    2098.4645    2049.8721   -298.26111    90.658977    145.49537   -6425.8858 
36294000    59.015673   -6862.4964   -6710.6822   -6862.4964            0    2500.1764    23.034927    21.382949    21.666957    10672.161    3326.2597    1571.9364    2602.3331   -998.69474    700.61655    199.04134   -6321.5484 
36295000    56.874483   -6875.2344   -6728.9282   -6875.2344            0    2523.2603    23.110147    21.382478    21.576367     10662.01    2621.7271    2498.6849    2449.3689    273.29227   -94.444308   -705.04894   -6336.5752 
36296000    62.356212   -6870.9624   -6710.5548   -6870.9624            0     1682.718     23.09797    21.425962    21.629948    10704.579    2627.3041    1078.7769     1342.073   -194.64195    200.78203   -155.99805   -6447.8568 
36297000    58.488778   -6870.4945   -6720.0357   -6870.4945            0    1715.1465    23.144335    21.404017    21.602169     10701.32    1920.7548    1510.1019    1714.5827    204.92465   -333.87694    63.388643   -6452.3566 
36298000    62.355873   -6867.6766   -6707.2699   -6867.6766            0    2079.1971    23.249875    21.308605    21.557429    10680.033    1369.2588    2534.7738    2333.5585   -64.114743    728.21826    176.72038   -6383.4197 
36299000    61.050467   -6864.9736    -6707.925   -6864.9736            0    2096.6521    23.265414    21.210858    21.667135    10692.285    1723.0628    2688.1533    1878.7402    318.56426   -43.181077   -72.997487   -6380.9815 
36300000    60.061325   -6868.5337   -6714.0296   -6868.5337            0    1754.0221    23.303903    21.209865    21.661303    10706.589    1277.1425    2159.5125    1825.4114   -21.450236   -96.126604    146.21874   -6440.1485 
36301000    61.203187   -6864.7021   -6707.2606   -6864.7021            0     2039.619    23.321725    21.206278    21.607651    10686.431    1422.0459    2889.1187    1807.6923   -142.96358   -107.17132   -336.91578   -6389.3847 
36302000    58.696853   -6870.6446   -6719.6505   -6870.6446            0    1431.9964    23.239161    21.258905    21.687161    10714.306    1898.9936    1473.8293    923.16626    -376.0044    207.99872    -76.59728   -6495.8908 
36303000    57.881729    -6867.246   -6718.3488    -6867.246            0    1966.4424    23.220341    21.288051    21.632558    10693.315    1134.5192    2805.9869    1958.8209     155.7135    407.36072   -204.29756   -6411.6801 
36304000    62.477168   -6870.6187      -6709.9   -6870.6187            0    2312.7912    23.173405    21.287905     21.65386    10682.136    1717.8468    2828.5784    2391.9482      260.067    871.51293   -233.65981   -6349.5948 
36305000    60.847154   -6868.0713   -6711.5457   -6868.0713            0    2006.7992    23.105436    21.411199    21.609273    10690.433     2854.903    1326.5951    1838.8994   -106.39106    22.500092    108.03568   -6398.6676 
36306000     63.20719   -6868.0891   -6705.4925   -6868.0891            0    1891.5192    23.147169    21.378915    21.596963    10687.502    2751.6922    944.24725     1978.618   -206.50368     29.53286    13.905873   -6410.6685 
36307000    60.775106   -6868.9344   -6712.5942   -6868.9344            0    2142.8559    23.080056    21.427547    21.590382    10677.501      1818.07    2280.9389     2329.559    195.57091    665.37397     53.23325   -6378.9078 
36308000    61.648779   -6873.3388   -6714.7511   -6873.3388            0    2265.3236    23.102598    21.409359    21.573605     10670.56    2458.1238    1916.2009     2421.646    404.63848    477.28681    -105.1948   -6362.2233 
36309000    60.349379   -6868.5375   -6713.2924   -6868.5375            0     2135.202    23.134066    21.364638    21.607943    10679.746    2389.0628    1770.5551    2245.9882    194.09437   -314.39697    143.09854    -6380.728 
36310000    59.829671   -6877.3403   -6723.4321   -6877.3403            0    2411.8066    23.124934    21.343787    21.604493    10663.409    2903.3795    1848.8609    2483.1794   -608.87514   -180.07451   -43.052666   -6348.3603 
36311000    59.036597   -6867.0678   -6715.1997   -6867.0678            0    1775.2582    23.236435    21.278579    21.634124     10696.74    1552.2232    2186.9526    1586.5987   -144.59868    54.804454    34.246129   -6438.2577 
36312000     60.69076   -6866.2753    -6710.152   -6866.2753            0    2047.6372    23.255816    21.266833    21.619104    10692.324    1366.0447    2540.9054    2235.9615   -195.25083   -12.939385   -289.89275   -6390.8505 
36313000    63.403071   -6865.9858   -6702.8852   -6865.9858            0    1849.2735    23.270259    21.218867    21.651544    10690.851    1718.9597    2280.4096    1548.4512    245.24167   -208.81166    376.27366   -6414.5556 
36314000    60.376907   -6872.7427   -6717.4268   -6872.7427            0    1799.9913    23.314052    21.193933    21.665018    10705.042    1058.7258    2919.4297    1421.8185    504.34594   -449.45358   -382.22669   -6436.4084 
36315000    58.613773   -6877.0587   -6726.2783   -6877.0587            0    1254.4524    23.228243     21.30558    21.653871     10716.31    1563.9815    1107.0735    1092.3023   -62.644238   -492.98924    319.06419   -6530.2245 
36316000    62.640665   -6867.6315   -6706.4922   -6867.6315            0    2399.1975    23.222397    21.327113    21.555024    10675.485    1854.1135    2591.8445    2751.6346   -43.526414    252.04688    262.87655   -6332.9587 
36317000    58.366387   -6873.7738   -6723.6299   -6873.7738            0    2282.3121    23.088364    21.338275    21.667045    10674.613    2815.7228    2604.8049    1426.4088    174.10791   -25.082153   -335.28639   -6368.3234 
36318000    57.914703   -6869.7629   -6720.7809   -6869.7629            0    2095.1753    23.130957    21.394482    21.591725    10685.201    2048.8877    1930.3102    2306.3279    -126.9954    206.00127   -37.030067   -6394.2841 
36319000     55.35534   -6867.1774   -6724.7791   -6867.1774            0    2008.6438    23.054179    21.455661    21.609259    10688.862    2789.9025     1039.897    2196.1319   -275.99779    313.19493    739.10983   -6411.6595 
36320000    58.876284   -6867.6119   -6716.1563   -6867.6119            0    1887.6057    23.114805    21.452502    21.566959    10694.416    2111.4397    788.44396    2762.9333     53.13546    209.29183    1109.9046   -6421.7519 
36321000    60.602828   -6867.7243   -6711.8272   -6867.7243            0    2004.8197    23.132103    21.407027    21.577098    10684.754    2165.1395    825.46174     3023.858    349.94758   -95.091112    261.87472   -6399.4238 
36322000    64.323871   -6867.7108   -6702.2416   -6867.7108            0    1953.9348    23.142325    21.324748    21.667295    10692.902    1834.0075    1971.5618    2056.2351   -84.376171    722.90522    297.11625   -6397.5352 
36323000    60.850435   -6878.4867   -6721.9527   -6878.4867            0     1747.945    23.302629    21.319424    21.528831    10695.494    1409.4342     1487.866    2346.5347   -289.17524   -227.76771   -252.13846   -6449.3034 
36324000    62.091595   -6874.3639    -6714.637   -6874.3639            0    2127.7752    23.215082    21.202392    21.708312    10685.163    1752.7896     3158.056      1472.48   -124.78225   -544.47927    82.268415   -6383.0613 
36325000    59.506263   -6867.4867   -6714.4105   -6867.4867            0     2070.526    23.249297    21.259484    21.626387    10689.232    2364.3419    2357.1239    1490.1123   -551.34239   -698.28516   -599.20867   -6391.6331 
36326000    62.601225   -6877.1004   -6716.0625   -6877.1004            0     2254.704    23.267657    21.217267     21.62135    10673.944    1825.3372    2638.1623    2300.6126   -306.95463   -231.28051    280.83904   -6365.0761 
36327000    60.633152   -6875.3535   -6719.3784   -6875.3535            0    2606.4819    23.234249    21.230825    21.633239    10671.294     2070.064    3308.1021    2441.2796   -44.018384   -565.05897   -345.36048   -6313.7319 
36328000    60.988512    -6860.181   -6703.2918    -6860.181            0    2334.2361    23.250732    21.227649    21.630004     10675.67    2008.2226    2487.5097     2506.976    -135.2189    877.81795     741.0986   -6339.8659 
36329000    59.266834   -6873.1493    -6720.689   -6873.1493            0    1915.1187    23.203885    21.337876    21.607203    10698.194    1379.0406    1934.7497    2431.5659     98.19946   -128.42633   -297.40869    -6421.888 
36330000    63.546015   -6869.0187   -6705.5504   -6869.0187            0    1851.0965    23.118832    21.363908    21.643948    10690.132    2591.4532    1936.2399    1025.5966   -58.999741   -415.80848    -388.7173   -6416.9559 
36331000    60.426484   -6873.8677   -6718.4243   -6873.8677            0    2343.5994    23.062694    21.377905    21.637175    10667.821    2509.7593    1783.7392    2737.2998    239.70302    687.63927    227.36765   -6353.8089 
36332000     60.87398   -6874.0533   -6717.4587   -6874.0533            0    1931.9757    23.146203    21.412533    21.556285    10683.701    1638.3363    1370.2136     2787.377     521.6111    199.95397    342.58857    -6416.436 
36333000    58.490396   -6866.3116   -6715.8487   -6866.3116            0    2234.8355    23.127917     21.37204    21.605022    10679.163    2203.0491     1747.901    2753.5563    463.78191    405.82478    540.29612    -6367.785 
36334000    61.761412   -6861.9697   -6703.0923   -6861.9697            0    1886.5874    23.164829    21.363304    21.647692    10712.951    2081.7321    1608.7803    1969.2497    394.07661   -507.37436    288.82907   -6408.3367 
36335000    58.543731   -6867.4578   -6716.8576   -6867.4578            0    1894.8019     23.24839    21.262679    21.620466    10687.495     1462.176    1725.9383    2496.2915   -170.86784    449.63216    490.49122   -6421.5221 
36336000    59.935847   -6872.7346   -6718.5533   -6872.7346            0    1638.4784     23.27978    21.258941     21.62072    10700.169    947.21097    2203.2425    1764.9818    9.1763252   -156.29636     28.28071   -6462.8671 
36337000    60.333219   -6876.6518   -6721.4483   -6876.6518            0     1886.456     23.28573    21.175128    21.696012    10697.833    1067.4481    2877.7678     1714.152    204.50864    133.26023    163.93606   -6427.1292 
36338000    59.163984   -6864.6885   -6712.4927   -6864.6885            0    2058.9336    23.354373     21.22643    21.556468    10686.187    1319.3103     2755.895    2101.5956   -504.36044    219.70794     -398.263   -6391.6139 
36339000    58.919712   -6878.2037   -6726.6363   -6878.2037            0     1984.932    23.178847    21.261631    21.685744     10687.17    2570.0093    2286.1323    1098.6544    103.06872   -222.46253   -164.52728    -6417.262 
36340000    59.675854   -6870.7938   -6717.2813   -6870.7938            0    2098.3636    23.199596    21.326679    21.580366    10677.325     1868.017    2644.1926    1782.8812    294.33286    490.55698   -640.23602   -6390.5287 
36341000    56.978148   -6867.4107   -6720.8379   -6867.4107            0    2393.0282    23.100668     21.41351    21.581279    10675.533    2279.8921    2186.0193    2713.1731    648.99915    836.86892   -454.88949   -6348.2633 
36342000    58.763509   -6864.1544   -6712.9888   -6864.1544            0    2071.3627    23.096224    21.395685    21.615771    10681.639    2959.4991    1988.7358    1265.8534    250.68778    673.57356   -248.40398   -6390.3104 
36343000    59.056459   -6868.2005   -6716.2813   -6868.2005            0    1570.9852    23.024949    21.514333    21.622738    10711.178    1803.7877     831.4162    2077.7517    626.56668    1.8723985    23.768738   -6470.8753 
36344000    60.038319   -6866.5686   -6712.1237   -6866.5686            0    1650.4635    23.189068    21.404055    21.561251    10701.713    1505.0539    1632.2829    1814.0537     57.32683    -35.99819    40.266501     -6454.53 
36345000    57.335608   -6873.3435   -6725.8511   -6873.3435            0    2054.5384    23.198316    21.255333    21.683059    10691.655    2171.1617    2483.3418    1509.1117   -107.24468    87.091838     149.7238   -6405.4935 
36346000    60.747607   -6864.2143   -6707.9448   -6864.2143            0     1980.424    23.276481    21.224996       21.647    10694.553    1821.9271    2465.9104    1653.4344    333.41742   -509.18181    81.647377   -6399.0599 
36347000    57.239156   -6861.9528   -6714.7085   -6861.9528            0    2059.6257    23.310529     21.23954    21.576543    10682.652    1712.7148     2226.574    2239.5884   -391.54116   -286.89094     212.2154   -6393.8281 
36348000    57.256342   -6871.4982   -6724.2097   -6871.4982            0    1858.8647    23.239102    21.199381    21.714127    10697.564    1733.5813    2424.2478     1418.765   -328.31263      280.238   -44.094883   -6434.2027 
36349000    62.747206   -6873.6968   -6712.2835   -6873.6968            0      2051.21    23.176144    21.323275    21.610997    10679.966    2399.6589     2051.172    1702.7993   -88.799855    18.533166   -46.935435   -6392.7945 
36350000    60.284357   -6874.3773   -6719.2994   -6874.3773            0    2006.2142     23.13631    21.388482    21.591576    10684.604    1578.5027    1581.7138    2858.4262    8.4719838   -29.189038    376.10965   -6406.6831 
36351000    58.957197   -6875.5216   -6723.8578   -6875.5216            0    2022.0529    23.060247    21.475083     21.58191    10687.809    2344.4039    1118.6122    2603.1424   -86.185063    687.00381    229.57908    -6408.679 
36352000    58.287804   -6865.5696   -6715.6278   -6865.5696            0    2692.5578    23.121664     21.35333    21.582209    10655.666    2957.2009    2465.6824    2654.7901    795.65218    89.488548   -63.590425   -6297.1991 
36353000    61.171491   -6863.9116   -6706.5517   -6863.9116            0    2175.3531    23.144904    21.352164    21.619476    10684.211    2054.1455    2753.2636    1718.6501    -464.8662    332.68086   -392.80007    -6367.592 
36354000      60.6436   -6869.1668   -6713.1649   -6869.1668            0    1545.8822    23.234488    21.355496    21.574588    10704.965     1560.574    901.99103    2175.0816    539.12151   -447.84872    437.35867   -6471.8203 
36355000    60.751054   -6867.4014   -6711.1231   -6867.4014            0     1314.892     23.23942    21.238121    21.707059    10713.771    1566.0074    2074.4909    304.17769    238.85168   -508.33554    457.87326    -6505.672 
36356000    60.217096   -6873.2226   -6718.3178   -6873.2226            0    2468.7237    23.260104     21.19391    21.639232    10667.547    2388.6213    2975.0056    2042.5443   -373.03446   -121.92117    -369.6822   -6334.2455 
36357000    61.588771   -6874.5981   -6716.1647   -6874.5981            0    2360.4851    23.274881    21.201196    21.629517      10673.2    2394.2042    1892.6156    2794.6354   -116.39913    280.85659    7.9276121   -6348.7371 
36358000    60.387191   -6873.3764    -6718.034   -6873.3764            0    1799.0577    23.208119    21.313731    21.624816     10696.75    1666.4298    1861.9792    1868.7641   -311.49157    75.224532    69.479868    -6437.379 
36359000    58.508414   -6871.1402   -6720.6309   -6871.1402            0    1247.7289    23.173518    21.377672    21.623848    10712.365    1269.8807    1284.0311     1189.275    381.11323    601.13759    651.69994   -6525.6996 
36360000    61.017836   -6875.1651   -6718.2004   -6875.1651            0      2678.66    23.065231    21.389981    21.603513    10658.414    2884.4854    2718.6413    2432.8534    13.092353    399.59504    -27.06599    -6301.824 
36361000    60.396963   -6870.4704   -6715.1029   -6870.4704            0    1488.5032    23.145654    21.412603    21.607753     10708.99    2010.9933    456.10231    1998.4139    478.34572    54.038895    438.69106    -6482.629 
36362000     59.27782   -6866.7448   -6714.2563   -6866.7448            0    2042.1493    23.136281    21.378061    21.621225    10694.048    2574.2521    1889.1643    1663.0314    124.16968    175.58607   -49.023866   -6395.7591 
36363000    59.862537   -6866.6299   -6712.6372   -6866.6299            0    1719.2221     23.16891    21.377389    21.630064    10713.172    1427.7596    1998.2035    1731.7032   -13.772946   -206.66516   -148.64378   -6444.0248 
36364000    61.638017   -6869.7429   -6711.1828   -6869.7429            0    2004.2155     23.25068    21.311035    21.582588    10694.087    1521.3042    1617.7848    2873.5574     335.2189   -20.140074    208.50716   -6398.6008 
36365000    58.439976   -6862.1936   -6711.8603   -6862.1936            0    1557.8356    23.303299    21.231653    21.683501    10728.293    1078.8013    1830.9338    1763.7717    198.64492   -327.07856    99.552472   -6468.1195 
36366000    57.955622   -6874.3819   -6725.2946   -6874.3819            0    1711.3305    23.244419    21.272342    21.649866    10705.062    1540.0077     1918.515    1675.4689   -324.77792    2.2193578    263.65244   -6458.1176 
36367000    55.808118   -6873.4498   -6729.8868   -6873.4498            0    2393.6385    23.254122    21.301234    21.552154    10675.676    2221.6091     2093.324    2865.9824   -544.35082     108.2817      11.6355   -6357.2122 
36368000    59.103743   -6871.3936   -6719.3528   -6871.3936            0    2783.9161    23.147946    21.238568    21.656101    10646.772    3162.1872    3095.5142    2094.0468   -529.88455    53.547315    -803.7147   -6287.0879 
36369000      61.1328   -6873.9585   -6716.6981   -6873.9585            0    2202.2513    23.175777    21.306527    21.609643    10670.741    2008.0108    2602.8062    1995.9368    404.54302   -13.803488   -210.04327   -6373.9798 
36370000    60.851295   -6873.0486   -6716.5124   -6873.0486            0    2066.8631    23.088075    21.404703    21.607944    10678.503    2383.0988     1231.814    2585.6766    282.45666    135.86259    782.97826   -6394.6294 
36371000    61.186825   -6874.2595   -6716.8601   -6874.2595            0    2374.2562    23.077826    21.427888    21.584624    10673.792    2306.4626    2167.3077    2648.9984     123.7866    -97.88869   -57.151695   -6347.2684 
36372000     64.42221   -6869.4278   -6703.7056   -6869.4278            0    2160.9203    23.166967    21.383507    21.550822    10676.083    2327.2475     1777.334    2378.1793   -24.892169    247.08048    118.01466   -6367.2509 
36373000    59.688708   -6871.1184   -6717.5729   -6871.1184            0    2488.7744    23.105821      21.3475    21.652435    10680.096     2611.336    2481.9876    2372.9996   -267.00815   -181.59974     -219.136   -6329.9257 
36374000    61.979974   -6872.6653   -6713.2256   -6872.6653            0    1952.0108    23.239246    21.297852     21.61757     10699.53    2122.1024    1772.8702    1961.0598   -813.09288    119.02801    146.87019   -6408.6306 
36375000    61.907198   -6868.5844   -6709.3319   -6868.5844            0    1929.8224    23.232003    21.296462    21.622572    10697.972    1579.0905    2069.8558    2140.5209   -287.31619   -127.82605    19.558703    -6408.243 
36376000    62.306115   -6874.5524   -6714.2737   -6874.5524            0    1762.1655    23.320489    21.140734    21.708223     10702.42    779.58488    2378.6723    2128.2393    -167.5415    228.36696    681.45141   -6439.2282 
36377000    61.247652   -6875.0361   -6717.4803   -6875.0361            0    2025.8895     23.32497    21.232801    21.588645    10691.873    1447.4485    2129.3267    2500.8934   -35.409874   -302.03867    315.33399   -6401.5833 
36378000     58.38722   -6865.2841   -6715.0866   -6865.2841            0    2381.1963    23.197888    21.284944    21.636963    10683.592    2707.4885    2034.7365     2401.364   -959.44541    132.48257    356.85505   -6344.0742 
36379000    61.701036   -6862.2303   -6703.5082   -6862.2303            0    2229.5228    23.233684    21.315645    21.564667    10679.706    1546.6044    2381.5257    2760.4383    357.56311    49.551676   -79.417774   -6356.2543 
36380000    57.824059   -6875.5572   -6726.8083   -6875.5572            0    1651.1805    23.150354    21.342544    21.657712    10700.803    1629.6522     2227.985    1095.9044   -93.571617   -169.17464   -493.66575   -6469.1247 
36381000    58.920549   -6874.2564   -6722.6869   -6874.2564            0    2620.5937    23.069079    21.416515    21.586566    10665.043    3475.1893    2138.9532    2247.6385   -111.28216   -383.09423    51.343353   -6315.0831 
36382000    58.758243   -6858.7508   -6707.5988   -6858.7508            0    1525.9531    23.144991    21.448421    21.587749    10716.666    2106.8836    436.66561      2034.31     480.1451    -531.8716    777.06758   -6469.1052 
36383000    60.126349   -6865.8039   -6711.1325   -6865.8039            0     2087.843    23.093466    21.409108    21.633081    10695.623     2481.107    1862.7582    1919.6639   -276.33875    623.32543    552.99241    -6385.461 
36384000    57.536544   -6870.3142    -6722.305   -6870.3142            0     1828.601    23.104785    21.472424     21.57826    10705.314    2158.1948    766.37612    2561.2322    496.05406   -143.20291   -326.30871   -6436.8128 
36385000    59.812966   -6878.5208   -6724.6556   -6878.5208            0    1474.9032     23.23395    21.337043    21.602934     10709.52    1342.7684    1963.2321    1118.7093   -171.05349    343.39529   -363.23661   -6494.2943 
36386000    60.666917   -6866.1723   -6710.1103   -6866.1723            0    1805.5813     23.20217    21.284444    21.697064    10714.993    2206.2954    1706.6173    1503.8312     69.36662   -130.11217   -518.19897   -6427.9572 
36387000    59.719692   -6872.0992   -6718.4739   -6872.0992            0    1772.7412    23.320899    21.229253    21.605605    10696.616    916.68352    2366.3834    2035.1566   -444.08183    107.94105   -307.18705   -6441.9277 
36388000    58.156065   -6872.3227   -6722.7197   -6872.3227            0    1724.4078    23.280893    21.265997    21.621205    10704.472    1418.7864    2278.2022    1476.2349      64.9436   -366.07721   -302.94818    -6453.516 
36389000    59.288769   -6873.2741   -6720.7573   -6873.2741            0    1841.2469    23.250458    21.218461    21.691483    10701.253      995.424    2644.6594    1883.6574   -218.50889    98.397562     205.2395   -6433.3998 
36390000    60.250529   -6872.2698    -6717.279   -6872.2698            0    1874.7651    23.259111    21.268691     21.61054    10690.536    1268.8219    1837.1286    2518.3448    689.43427    144.33945    144.78773   -6424.9834 
36391000    58.736471   -6871.1642   -6720.0682   -6871.1642            0     2743.665    23.167541    21.304867    21.590934    10656.883    2815.3933    2670.3578     2745.244   -3.1700477    377.73504   -349.81274   -6293.6485 
36392000    60.238128   -6868.3343   -6713.3754   -6868.3343            0    2627.1811    23.038898    21.346775    21.671266    10658.063    3343.1303    2583.7122    1954.7009    298.11184    -504.6984    161.64537   -6305.0145 
36393000    59.254976   -6867.5779   -6715.1481   -6867.5779            0    1783.1762    23.160932    21.449181    21.520698    10691.118    2499.4541    938.31196    1911.7626   -665.90223   -115.81321   -502.82039   -6437.1171 
36394000    58.892216   -6866.9126   -6715.4159   -6866.9126            0    2171.7497    23.081152    21.382167     21.61023     10665.19    2222.4132    2894.4795    1398.3564   -176.75923    446.88962   -402.96894   -6377.6201 
36395000     60.07573     -6860.37   -6705.8288     -6860.37            0    2168.2416    23.102266    21.387507    21.640209    10692.424    2593.3112    1862.7452    2048.6685    236.20688   -106.23035   -772.92302   -6367.7175 
36396000    59.496393   -6870.9475   -6717.8967   -6870.9475            0    1751.8868    23.206763    21.329838    21.600727    10692.284    1485.0338    1603.1147    2167.5119    70.243094    928.34302    342.64601   -6444.7144 
36397000    61.374306   -6879.1836   -6721.3019   -6879.1836            0    2366.5988    23.219205    21.252143    21.611925    10664.574    2602.7687       2497.6    1999.4277   -276.05952     546.6568   -108.10031   -6353.2204 
36398000    57.675438   -6869.9877   -6721.6212   -6869.9877            0    2229.7104    23.217073    21.225349     21.67278     10680.14    2072.2585     3019.918    1596.9546    -533.5104   -371.50828   -361.26581    -6374.324 
36399000     62.09933   -6868.7404   -6708.9937   -6868.7404            0    1932.9884    23.292025    21.266001    21.604082    10701.112     2019.164    1790.9479    1988.8535   -681.55839   -28.093582   -232.87914   -6407.3224 
36400000    58.882196   -6870.1635   -6718.6926   -6870.1635            0    2653.9076    23.230319    21.252072    21.618224    10672.753    2080.2961    3386.3367    2495.0902    510.07367    92.046505   -293.00418   -6305.6088 
36401000    62.470942   -6869.8329   -6709.1302   -6869.8329            0    2004.4719     23.19656     21.31469    21.623247    10691.128    1566.8025    1841.9067    2604.7065     34.86945    404.88299    472.76533   -6396.5947 
36402000    59.329688   -6875.8294   -6723.2074   -6875.8294            0    1319.0983    23.207907    21.425406    21.545175    10713.097    970.70324    1350.4446    1636.1471     372.4265   -114.19759   -392.76318    -6517.112 
36403000    60.162576   -6862.7843   -6708.0197   -6862.7843            0     1734.151    23.108863    21.355648    21.693429     10705.81    2380.5471    1136.7439     1685.162   -261.00653   -181.23504    297.19447   -6437.2611 
36404000    58.979364   -6868.6173   -6716.8965   -6868.6173            0    2163.4685    23.159088    21.435308    21.519315    10682.665    2105.7411    1678.7938    2705.8705   -187.26518    456.53795    -428.8003   -6379.8373 
36405000    58.457088   -6872.0785   -6721.7012   -6872.0785            0    1923.6199    23.058947    21.394235    21.658047    10684.533    2107.6683    1893.7348    1769.4567    209.81255    473.26447   -365.50012    -6421.957 
36406000    55.871177   -6872.5562    -6728.831   -6872.5562            0    1723.4028    23.100289    21.385013    21.654692    10697.417    1736.7973    1286.9663    2146.4449   -55.675626    615.13218   -231.36866   -6459.9614 
36407000    56.793304   -6866.3532   -6720.2558   -6866.3532            0    2136.4171    23.205408    21.372379    21.546307    10685.994    1848.8598    2004.1001    2556.2914   -125.53264    418.87802    40.411109   -6387.3075 
36408000    60.150968   -6875.4856   -6720.7509   -6875.4856            0    1603.9189    23.173897    21.322156     21.67878    10711.863    1615.8042    1349.3427    1846.6099    249.74452   -520.09791    413.37772   -6470.1842 
36409000    59.042697   -6866.7382   -6714.8545   -6866.7382            0    1648.5139    23.293969    21.253877    21.648824    10718.055    961.84469    1749.9261    2233.7709   -411.84068     504.9538    128.19243   -6457.1723 
36410000     62.19508   -6879.2577   -6719.2646   -6879.2577            0    2220.7023    23.311368    21.235077    21.567822    10676.475    1343.9936    2534.3389    2783.7746   -236.74098    291.76893   -531.83888   -6373.4892 
36411000    55.932413   -6867.0599   -6723.1771   -6867.0599            0    2662.2041    23.239748     21.17226    21.680356    10667.559    2809.3762    3611.9574    1565.2786   -380.00146     336.3872   -538.78134   -6309.0037 
36412000    60.396029   -6869.7084   -6714.3433   -6869.7084            0    2534.3084    23.235531    21.263461    21.589524    10666.689    2657.3749    2064.5289    2881.0214    360.60262   -181.98125   -4.9347021   -6320.0994 
36413000    58.448464   -6866.6589   -6716.3038   -6866.6589            0    1676.7851    23.187809    21.324413    21.634588    10697.577    1429.3882    2021.7771    1579.1899   -1050.1815    155.77561    263.01952   -6454.7032 
36414000    59.973175   -6875.2651   -6720.9877   -6875.2651            0    2110.7412    23.105454    21.377832    21.627236    10682.654    2661.5852    1810.0132    1860.6251    365.58544   -475.85892    94.334737   -6392.1437 
36415000    59.913078   -6868.9574   -6714.8347   -6868.9574            0    2587.6732     23.11659    21.388071    21.555403    10657.406    2741.0835    1973.0874    3048.8486    809.13748    28.022227   -140.34334   -6312.6395 
36416000    60.204982   -6860.5283   -6705.6547   -6860.5283            0    1824.6625    23.072781    21.424591    21.645482    10699.901    2601.0131    1286.0944      1586.88    324.31043   -316.73358    306.34324   -6420.9214 
36417000     59.79273   -6870.6681    -6716.855   -6870.6681            0    1768.7706    23.186354    21.339006    21.618475    10696.254    1433.7364    1753.6264     2118.949    36.722649    32.193419   -4.5607705   -6440.9376 
36418000    63.576672   -6870.9152   -6707.3681   -6870.9152            0    2202.7862    23.228801    21.287347    21.625967    10693.598     2455.711     2352.745    1799.9027    -594.2774   -352.26078   -121.34396   -6363.8322 
36419000    61.156779   -6859.5386   -6702.2165   -6859.5386            0    1875.3151    23.262503    21.289559    21.646572    10720.431    2439.1789     1036.578    2150.1882   -317.60585   -862.24802    361.07443   -6409.0176 
36420000    59.798371   -6870.7006    -6716.873   -6870.7006            0    1923.7237    23.297283    21.220027    21.635433    10695.887    1332.1398    2719.0415    1719.9899    217.89495   -501.08888    290.08352   -6416.7941 
36421000    60.696221   -6872.4874   -6716.3501   -6872.4874            0    1942.4764    23.291423    21.234993     21.63368    10699.871    1688.5856    2205.8034    1933.0402    320.00534   -16.335475    280.18839   -6413.2332 
36422000    61.828413   -6873.1112   -6714.0614   -6873.1112            0    1435.3758    23.311302    21.212633    21.665272    10713.349    673.54669    1460.8069     2171.774    532.02808    218.38873    278.89435   -6489.7936 
36423000    59.411289   -6871.5762   -6718.7443   -6871.5762            0    2349.5481    23.217862    21.300677    21.582048    10673.535    1679.8435    2272.9146    3095.8862   -170.06501    4.3622299    -106.2275   -6353.0076 
36424000    60.717824   -6877.5989    -6721.406   -6877.5989            0    1908.4655    23.123232    21.382215     21.62136    10690.161    2427.9643    1189.4955    2107.9367   -166.15499    38.655246    347.38888   -6423.8667 
36425000    60.617666   -6868.8004   -6712.8652   -6868.8004            0     1334.005    23.100371    21.465784    21.599384    10710.434    1625.3627    876.58756    1500.0649   -82.275492   -213.21513   -88.813694   -6504.4927 
36426000    57.876443   -6869.3105   -6720.4269   -6869.3105            0    2064.5395    23.078532    21.433133    21.592783    10680.767    2231.1524    1749.6141    2212.8521    20.165113    135.23073    249.24286   -6398.8377 
36427000    59.862304   -6859.5905   -6705.5984   -6859.5905            0    1734.6341    23.086699    21.447267    21.628579    10709.317    2402.9088    902.11429    1898.8792   -122.57229   -169.79463    -448.3744   -6434.6756 
36428000    60.721366   -6868.3535   -6712.1515   -6868.3535            0    2330.4148    23.108229     21.37752    21.598324    10669.499    2749.9921    2458.2821    1782.9703   -1105.4607    556.56745   -622.63129   -6349.5303 
36429000    59.703094   -6868.0324   -6714.4499   -6868.0324            0    3101.2748    23.097835    21.378854    21.554196    10643.575    3342.0101    2489.8322    3471.9821   -211.09295     88.94514   -263.74832   -6233.0525 
36430000    61.840841   -6871.4811   -6712.3993   -6871.4811            0    2076.5986    23.187755    21.287379    21.637186    10680.256    2163.9098    1955.6338    2110.2522    -30.92979    122.35574    395.65422   -6388.9471 
36431000    59.291649   -6869.4065   -6716.8823   -6869.4065            0    1447.1227    23.250981    21.316409    21.612091    10711.545     1426.626    1525.2806    1389.4614   -650.40393   -35.632645   -354.36925   -6490.8173 
36432000    59.296095   -6863.9804   -6711.4448   -6863.9804            0    1907.7779    23.276594     21.25164    21.614795      10692.1    1843.6551    1725.0545    2154.6241   -18.551804   -399.24258    387.34929   -6413.9587 
36433000    59.345852   -6873.6494   -6720.9858   -6873.6494            0    2131.8779    23.242622    21.229252    21.658651    10686.887    1892.6344    2813.4723    1689.5269   -323.81867   -225.50225   -145.96775   -6388.7171 
36434000     59.58259   -6872.8674   -6719.5948   -6872.8674            0     2255.038    23.265463    21.274009    21.579294    10680.665    2053.9454    1649.0674    3062.1011   -313.99124    15.577342    477.53471   -6368.3354 
36435000     61.99453   -6870.9662    -6711.489   -6870.9662            0    1565.5207    23.212744    21.309579    21.645022    10706.792    1384.4397    1607.2642    1704.8582   -564.74152   -78.579539    670.34217   -6467.0368 
36436000    61.284392   -6866.4577   -6708.8074   -6866.4577            0    2256.2015     23.15495    21.365861    21.587064     10679.67     2109.674     2081.979    2576.9515    14.418585   -403.42686    20.129725   -6357.3994 
36437000    59.431374   -6877.5488   -6724.6652   -6877.5488            0    1844.1346    23.083624     21.39682    21.644539    10690.587    2536.3736    955.94296    2040.0874   -376.96914    437.98776   -64.005291   -6437.1439 
36438000    61.225346   -6865.7451   -6708.2466   -6865.7451            0    2287.4386    23.131277    21.409111    21.570773     10682.28    2561.7986    1812.7694    2487.7478   -181.98814   -55.757944   -671.15391   -6351.8863 
36439000    57.160157   -6872.6421   -6725.6011   -6872.6421            0    1917.4956    23.170207    21.345766    21.593954    10680.063    1443.4113    1615.0287    2694.0468   -203.62191    634.53797    559.98173   -6426.9363 
36440000    59.193189   -6855.1188   -6702.8479   -6855.1188            0    1752.0013    23.213595     21.29728    21.670238    10713.472    1956.3957    1972.1984    1327.4099   -345.52555    243.04942   -242.16815   -6429.1065 
36441000    59.158028   -6861.6185    -6709.438   -6861.6185            0     2316.019    23.221909    21.240078    21.666574    10686.716     2124.993    2568.7238    2254.3401   -62.031804   -99.704133   -297.70045   -6348.4754 
36442000    60.362192   -6867.6258   -6712.3477   -6867.6258            0    2408.2477    23.345552    21.208759    21.579574    10684.698    1416.7505    3066.0561    2741.9365   -539.06679    320.36113   -285.62093   -6337.0816 
36443000    59.536621   -6872.5781   -6719.4237   -6872.5781            0     2008.204    23.277084    21.187407    21.688639    10696.426    1836.5049    2679.0709    1509.0364    30.262569     70.96921   -196.71917   -6406.1511 
36444000    59.944672   -6868.3552   -6714.1512   -6868.3552            0    2208.7097    23.211367    21.283856    21.623212    10682.459    2188.2206    2549.3456    1888.5627   -476.61263    481.06754   -301.48154   -6370.0503 
36445000     60.78426    -6866.502   -6710.1382    -6866.502            0    2277.5279    23.209941    21.334785    21.538166     10665.25     1660.135    2317.2316    2855.2171    7.3051178    189.05642    120.52981   -6355.8875 
36446000    58.544054   -6868.8582   -6718.2572   -6868.8582            0    2130.3457    23.084318    21.385431    21.643537    10684.724    2790.5187    1377.7113    2222.8073   -124.01054    336.89236    -73.26616   -6386.2945 
36447000    57.594358   -6860.4973   -6712.3393   -6860.4973            0    2610.2837    23.113894    21.399607    21.542774    10655.665    2572.6831     2327.103    2931.0649    16.888141    59.128185   -380.80859   -6306.6961 
36448000     61.95626    -6870.315   -6710.9363    -6870.315            0    1976.8875    23.093424    21.421113    21.611071    10690.712    2692.4313    1066.0854    2172.1456   -284.70478   -127.18409   -154.41792   -6402.7137 
36449000    62.808567   -6872.3114   -6710.7402   -6872.3114            0    2109.4298     23.15745    21.384146    21.558235    10675.687    1683.1482    1807.7182    2837.4231    133.16293   -26.105804   -142.53735   -6382.3147 
36450000    60.887351   -6874.6401   -6718.0111   -6874.6401            0    2200.8116    23.153537     21.32065    21.628661    10676.955    2546.6062    2121.2089    1934.6196   -729.94737    258.36973    391.15529   -6375.3174 
36451000    59.356827   -6866.9301   -6714.2383   -6866.9301            0    1799.3047    23.203093    21.333287    21.622792    10703.244    1961.9878    1019.4451    2416.4812   -215.28965   -440.50637   -34.827161   -6433.3743 
36452000    60.319614   -6871.4743   -6716.3058   -6871.4743            0    1514.8058    23.289363    21.217509    21.664371    10705.281    1217.4031    2285.6362     1041.378    -437.0971   -274.50393    130.99665   -6479.8059 
36453000    55.529058    -6871.962   -6729.1168    -6871.962            0    1829.9994    23.239854    21.238273     21.67199    10696.739    2030.8355    1622.4889    1836.6738   -220.64013   -246.97242    71.335766   -6443.6352 
36454000    58.417304   -6868.4094   -6718.1344   -6868.4094            0    2335.3257    23.304602    21.188114    21.609864    10670.531    1113.9572    3276.9854    2615.0347    161.68934   -20.927597   -38.842432   -6354.7139 
36455000    59.392143   -6872.6615   -6719.8788   -6872.6615            0    1642.4196    23.274697    21.276475    21.613377     10703.02    1623.7515    1774.9067    1528.6007   -273.47149    -330.1406   -29.972141   -6463.5093 
36456000     58.45045   -6876.1125   -6725.7523   -6876.1125            0    2044.9164    23.165071    21.305485    21.659395    10689.844    2415.6339    1463.0828    2256.0324    113.81804   -698.18219   -32.114991    -6406.949 
36457000    58.811852   -6874.2792   -6722.9893   -6874.2792            0     2357.571    23.145272    21.406412    21.521256    10662.862     1920.041    2065.4674    3087.2048   -401.08492    264.22037    756.13295   -6356.3707 
36458000    61.010054   -6870.2967   -6713.3521   -6870.2967            0    2401.4348    23.074656    21.392769    21.643582    10683.939    3334.8047    1752.6142    2116.8853    335.78913   -534.92027   -52.802787   -6339.1742 
36459000    61.033625   -6867.7778   -6710.7725   -6867.7778            0    1935.4035    23.164489    21.362917    21.595149    10686.598    1756.1397    2084.8729    1965.1978    204.61334    368.20276    305.09534   -6409.1339 
36460000    60.449252   -6873.0958   -6717.5937   -6873.0958            0    1993.0311    23.168013    21.396138    21.567858    10691.316    2805.1395    958.29959    2215.6542   -447.10453   -102.95157   -283.83665   -6406.8366 
36461000    61.825435   -6871.0667   -6712.0245   -6871.0667            0    1848.9904    23.129776    21.340216    21.670865    10696.618    1922.4639    1767.6543    1856.8531   -14.596689    416.33234    390.33645   -6423.5835 
36462000    60.239478   -6875.0878   -6720.1254   -6875.0878            0    1676.5305    23.283734    21.315316    21.555737    10698.115    1396.6476    2076.0271    1556.9166    382.38762    150.87104    231.89886   -6458.5514 
36463000    58.260499   -6868.6614   -6718.7898   -6868.6614            0    1499.1649    23.237667    21.279433    21.677606    10719.238    1142.3758    2076.3463    1278.7727    338.73141   -462.82458   -407.57291   -6484.4267 
36464000    61.616485   -6875.3779   -6716.8732   -6875.3779            0    1844.6076    23.346114    21.216882    21.581809    10690.156    1251.4972    1742.4782    2539.8474   -211.51071    189.97099    527.04738   -6429.2898 
36465000     56.81364   -6872.0729   -6725.9233   -6872.0729            0    1947.1005    23.266784     21.25066    21.640346    10699.734    1734.2682    2066.0048    2041.0287   -51.137401   -616.08549    -157.2674   -6422.0887 
36466000    60.059605    -6870.857   -6716.3573    -6870.857            0    1801.9072    23.195529    21.244207    21.699674    10692.962    1240.2909    2186.2389    1979.1917   -456.76489    538.69544    586.33654   -6435.3573 
36467000    60.903304   -6873.8833   -6717.2133   -6873.8833            0    2023.4715    23.249514    21.386366    21.478155    10679.424    1582.8913    1512.9999    2974.5233   -339.17025    -2.791346    27.795756   -6402.0607 
36468000    60.443019   -6865.2862   -6709.8002   -6865.2862            0    1905.7795    23.126153    21.311674    21.700986    10695.483    1803.1509    2526.7045    1387.4832    329.58559    512.04657    290.78973   -6412.5317 
36469000    61.280076   -6874.8369   -6717.1976   -6874.8369            0    2239.4937    23.141919    21.402274    21.542478    10669.767    2246.6984     1470.294    3001.4888    756.61196   -338.05844    27.440796   -6368.7154 
36470000    57.007144   -6870.8394    -6724.192   -6870.8394            0    2606.1989    23.029609    21.397397    21.619922    10653.729    3349.2582    2335.1859    2134.1528   -93.819608   -266.71873   -65.512707   -6319.2572 
36471000    60.339526   -6876.4983   -6721.2786   -6876.4983            0    1531.2747    23.151092    21.385984    21.606396    10697.519    2198.2332    632.99972    1762.5912    250.04937     -620.559    260.99515   -6482.3808 
36472000    56.968907   -6868.9492   -6722.4001   -6868.9492            0    1936.4066    23.162801    21.327402    21.650182    10695.241    1770.7861    2720.7284    1317.7052    299.46081   -79.146114    78.956256   -6420.3611 
36473000    57.668594   -6867.9248   -6719.5759   -6867.9248            0    2271.2216    23.212069    21.253021    21.635375    10673.306    1708.3778    2358.3588    2746.9282    52.632566    405.66943    134.50385   -6366.0393 
36474000    63.039268    -6870.104   -6707.9393    -6870.104            0    1874.4604    23.292928    21.286539     21.58532    10702.559    1842.2784    1694.0386    2087.0642   -312.69827   -111.91524   -305.40738   -6415.3626 
36475000    57.419979   -6866.6566   -6718.9472   -6866.6566            0    1963.1958    23.262785    21.219772    21.659607    10691.853    1631.1093    2277.7438    1980.7343    70.073889   -225.33081    491.55145   -6412.8267 
36476000    58.633177   -6870.2024   -6719.3721   -6870.2024            0    1476.5699    23.344958    21.237054    21.643667    10730.457    322.06623    1970.0924    2137.5509   -333.76675    195.56027    224.22274   -6488.2997 
36477000    62.187562   -6863.5951   -6703.6214   -6863.5951            0     2165.985    23.236313    21.278044     21.61481    10686.866    2236.1123    2456.7257     1805.117    84.370803   -629.09552    238.62822   -6366.0375 
36478000    62.372818   -6865.3891   -6704.9388   -6865.3891            0    2337.9295    23.195987    21.300472    21.625916    10685.051    2417.6388    2504.9211    2091.2285     299.2897   -127.77394   -177.85617   -6340.6181 
36479000    60.029876   -6868.7354   -6714.3122   -6868.7354            0    1725.1646    23.129599    21.426702    21.600662    10705.094    1875.8793    1248.0809    2051.5337    23.207453    231.51803    342.71785   -6444.9746 
36480000    60.407623   -6864.6802   -6709.2853   -6864.6802            0    1836.7856    23.111054    21.406687    21.621291    10696.725    2101.7773    1364.8519    2043.7275     240.6114    28.913373    248.13427   -6422.7453 
36481000    62.024832   -6867.9131    -6708.358   -6867.9131            0      1919.23    23.101861    21.397858    21.638025    10696.333    2816.0605    1751.8018    1189.8278    277.40548    99.867452   -698.02661   -6408.9676 
36482000    58.576603   -6863.7538    -6713.069   -6863.7538            0    2504.5724    23.071593    21.403466    21.601189    10666.928     2530.586    2912.9014    2070.2296    774.56443    754.40578    55.012233   -6323.4422 
36483000    58.807173   -6871.0778      -6719.8   -6871.0778            0    1994.8438    23.152245    21.344705    21.626226    10687.201    2078.0097    2155.1498    1751.3718    28.618618    140.90411     -246.111   -6408.8799 
36484000    60.481303   -6871.1132   -6715.5288   -6871.1132            0    1994.1302    23.215603    21.345444    21.574515    10691.194    1552.0682    1591.5365    2838.7857   -81.979345    284.32366    808.43264   -6404.6038 
36485000    59.860639   -6871.6922   -6717.7044   -6871.6922            0    2416.4449    23.284818    21.226622    21.599264     10675.61    1966.4942    3293.5361    1989.3043   -465.20991   -573.06445   -186.37808   -6341.4812 
36486000     59.34317   -6868.8622   -6716.2055   -6868.8622            0    2211.5456    23.257238    21.174328    21.684213    10678.529     2543.409    2247.4067    1843.8212   -69.447984    47.549612    251.03688   -6371.7895 
36487000    58.383172   -6870.3576   -6720.1705   -6870.3576            0    2005.6732    23.324818    21.190739    21.619166    10685.708    1120.1787    2420.0769     2476.764   -552.09126    416.54702   -70.446113   -6407.6062 
36488000    59.876676   -6862.0088   -6707.9797   -6862.0088            0    2459.9254    23.218107    21.227931    21.641504      10666.5    2401.1344    2241.4484    2737.1935    26.828641    153.18752     105.2052   -6325.3138 
36489000    58.880651   -6869.3539    -6717.887   -6869.3539            0    2125.9843    23.232069    21.293674    21.595102    10683.013    1626.6148    2370.0525    2381.2854    110.30036    394.49352     353.2594    -6386.657 
36490000    62.144143    -6871.963    -6712.101    -6871.963            0    1778.1865    23.167736    21.320271    21.650478    10694.089    1365.8827    1759.7518     2208.925    34.834579    840.37671    248.79872   -6434.7709 
36491000    59.225146   -6871.9177   -6719.5646   -6871.9177            0    1890.1139    23.131209    21.377056    21.626793    10693.955    1959.4649    1731.3955    1979.4814    729.60315   -521.84634    273.99322   -6424.7818 
36492000     61.56387   -6875.8746   -6717.5053   -6875.8746            0    2579.1465     23.07257    21.379847    21.607521    10658.731    3367.7025    2138.4359    2231.3011    299.82806   -115.58524   -167.84176   -6316.5856 
36493000    61.070993   -6867.1621   -6710.0607   -6867.1621            0    1838.2406    23.110162    21.476233    21.543256    10692.332    1789.4194    1439.9182    2285.3842   -173.64865    631.08338    253.14542   -6423.4115 
36494000    60.280341   -6871.3259   -6716.2584   -6871.3259            0    1621.2714    23.136924    21.396396     21.61897    10702.402    1607.7438    1954.7635    1301.3068   -53.428071    165.55121   -139.17575   -6463.2046 
36495000    62.049754   -6864.8488   -6705.2296   -6864.8488            0    1818.4761    23.168626    21.386992     21.58496    10695.504    2482.6116    831.72139    2141.0954    241.87117   -158.37565    545.47304   -6421.5783 
36496000    57.863216   -6867.8617   -6719.0121   -6867.8617            0    2852.5548    23.169249    21.287926    21.630096     10668.51    2575.8765    3229.8541    2751.9337   -378.94293   -195.89061   -226.95329   -6275.1852 
36497000    61.308052   -6873.0652    -6715.354   -6873.0652            0    1613.3522    23.289597    21.283225    21.590587    10701.973    1426.6884    1546.0297    1867.3383   -287.74566   -50.169583    98.769675   -6463.5463 
36498000     60.59038   -6869.6901   -6713.8251   -6869.6901            0     1599.965    23.333154    21.192452    21.650485    10705.878     717.1073    2543.5949    1539.1927   -581.46483    184.04627   -818.97266   -6464.0157 
36499000    60.303435   -6874.7378   -6719.6109   -6874.7378            0    1858.6066    23.243747    21.236723    21.670507    10697.017    2141.7532    1865.6322    1568.4344   -192.76168   -487.83238   -37.603473   -6429.6589 
36500000    61.668109   -6860.7258   -6702.0884   -6860.7258            0    2115.5792    23.312474    21.236436     21.58703    10687.175    1901.4734    2872.1743    1573.0901   -567.42686   -260.40871   -241.36709   -6372.3511 
Loop time of 623.868 on 64 procs for 250000 steps with 1296 atoms

Performance: 69.245 ns/day, 0.347 hours/ns, 400.726 timesteps/s
383.5% CPU use with 16 MPI tasks x 4 OpenMP threads

MPI task timing breakdown:
Section |  min time  |  avg time  |  max time  |%varavg| %total
---------------------------------------------------------------
Pair    | 39.169     | 49.338     | 57.827     |  78.5 |  7.91
Bond    | 1.4064     | 1.7095     | 2.0692     |  13.0 |  0.27
Kspace  | 319.47     | 332.91     | 345.33     |  34.8 | 53.36
Neigh   | 0.30917    | 0.35366    | 0.38104    |   3.6 |  0.06
Comm    | 64.255     | 72.31      | 81.633     |  57.5 | 11.59
Output  | 0.48877    | 0.48909    | 0.49057    |   0.1 |  0.08
Modify  | 142.78     | 146.65     | 152.89     |  25.8 | 23.51
Other   |            | 20.11      |            |       |  3.22

Nlocal:        81.0000 ave          97 max          66 min
Histogram: 2 2 0 3 1 2 2 1 1 2
Nghost:        3690.12 ave        3721 max        3646 min
Histogram: 1 0 0 2 2 4 3 0 1 3
Neighs:        26144.9 ave       31174 max       21190 min
Histogram: 2 2 0 2 2 2 2 1 1 2

Total # of neighbors = 418319
Ave neighs/atom = 322.77701
Ave special neighs/atom = 2.0000000
Neighbor list builds = 670
Dangerous builds = 0

unfix		3
unfix		2
unfix		1

write_data	data.final.${pid}
write_data	data.final.0
System init for write_data ...
PPPM initialization ...
  extracting TIP4P info from pair style
  using 12-bit tables for long-range coulomb (../kspace.cpp:340)
  G vector (1/distance) = 0.36763855
  grid = 30 40 32
  stencil order = 5
  estimated absolute RMS force accuracy = 0.0044778865
  estimated relative force accuracy = 1.3485022e-05
  using double precision FFTW3
  3d grid and FFT values/proc = 11832 2400
Last active /omp style is kspace_style pppm/tip4p/omp
WARNING: Not all mixed pair coeffs generated from mixing. Use write_data with 'pair ij' option to store all pair coeffs. (../write_data.cpp:312)

write_restart   restart.lmp.${pid}
write_restart   restart.lmp.0
System init for write_restart ...
PPPM initialization ...
  extracting TIP4P info from pair style
  using 12-bit tables for long-range coulomb (../kspace.cpp:340)
  G vector (1/distance) = 0.36763855
  grid = 30 40 32
  stencil order = 5
  estimated absolute RMS force accuracy = 0.0044778865
  estimated relative force accuracy = 1.3485022e-05
  using double precision FFTW3
  3d grid and FFT values/proc = 11832 2400
Last active /omp style is kspace_style pppm/tip4p/omp
Total wall time: 0:10:23
