#include		in.partitions
include		in.temp
variable        temperature equal 22.72
variable	tempDamp equal 100.0
include		in.pressure
variable        pressure equal 2186.0
variable        pressureDamp equal 1000.0 # This is 1 ps
include		in.seed
variable        seed equal 745823

units		real
atom_style	full
#include		in.box
read_restart	restart.lmp.${pid}
read_restart	restart.lmp.0
Reading restart file ...
  restart file = 30 Jul 2021, LAMMPS = 30 Jul 2021
  restoring atom style full from restart
  orthogonal box = (0.14599268 0.16507470 0.19266422) to (18.061580 23.464103 22.020532)
  2 by 4 by 4 MPI processor grid
  restoring pair style lj/cut/tip4p/long/omp from restart
  restoring bond style harmonic/omp from restart
  restoring angle style harmonic/omp from restart
  864 atoms
  576 bonds
  288 angles
Finding 1-2 1-3 1-4 neighbors ...
  special bond factors lj:    0        0        0       
  special bond factors coul:  0        0        0       
     2 = max # of 1-2 neighbors
     1 = max # of 1-3 neighbors
     1 = max # of 1-4 neighbors
     2 = max # of special neighbors
  special bonds CPU = 0.002 seconds
  read_restart CPU = 0.008 seconds
include 	in.setup
variable	out_freq equal 1000
variable	out_freq2 equal 10000
variable	out_freq3 equal 1000

timestep	2.0

neigh_modify    delay 7 every 1

include		in.tip4p
# This is TIP4P/Ice

# create groups ###
group ox type 2
288 atoms in group ox
group hy type 1
576 atoms in group hy

# set charges - beside manually ###
set group ox charge -1.1794
Setting atom values ...
  288 settings made for charge
set group hy charge 0.5897
Setting atom values ...
  576 settings made for charge

# ### TIP3P Potential Parameters ###
pair_style lj/cut/tip4p/long/omp 2 1 1 1 0.1577 8.5
pair_coeff 1 1*2 0.000 0.000
pair_coeff 2 2 0.21084 3.1668
bond_style  harmonic
bond_coeff  1 450 0.9572
angle_style harmonic
angle_coeff 1 55 104.52
kspace_style pppm/tip4p/omp 1.0e-5
pair_modify tail yes

thermo          ${out_freq}
thermo          1000
thermo_style    custom step temp pe etotal epair emol press lx ly lz vol pxx pyy pzz pxy pxz pyz enthalpy

restart 	${out_freq3} restart.lmp.${pid} restart2.lmp.${pid}
restart 	1000 restart.lmp.${pid} restart2.lmp.${pid}
restart 	1000 restart.lmp.0 restart2.lmp.${pid}
restart 	1000 restart.lmp.0 restart2.lmp.0


include         in.dump
dump            myDump all atom ${out_freq2} dump.water.${pid}
dump            myDump all atom 10000 dump.water.${pid}
dump            myDump all atom 10000 dump.water.0
dump            myDump2 all dcd ${out_freq2} dump.dcd
dump            myDump2 all dcd 10000 dump.dcd
dump_modify     myDump append yes
dump_modify     myDump2 append yes


variable natoms 	equal  "count(all)"                        # NUMBER ATOMS
variable H      	equal  "enthalpy/v_natoms"                 # ENTHALPY-per-atom
variable Vol      	equal  "vol/v_natoms"                 # volume-per-atom
fix AVG all 		ave/time ${out_freq} 1 ${out_freq} v_Vol v_H file vol_enthalpy.dat
fix AVG all 		ave/time 1000 1 ${out_freq} v_Vol v_H file vol_enthalpy.dat
fix AVG all 		ave/time 1000 1 1000 v_Vol v_H file vol_enthalpy.dat


timer           timeout 23:50:00 every 1000
New timer settings: style=normal  mode=nosync  timeout=23:50:00

fix 		1 all shake 1e-6 200 0 b 1 a 1
       0 = # of size 2 clusters
       0 = # of size 3 clusters
       0 = # of size 4 clusters
     288 = # of frozen angles
  find clusters CPU = 0.001 seconds
fix             2 all nph aniso ${pressure} ${pressure} ${pressureDamp}
fix             2 all nph aniso 2186 ${pressure} ${pressureDamp}
fix             2 all nph aniso 2186 2186 ${pressureDamp}
fix             2 all nph aniso 2186 2186 1000
fix             3 all temp/csvr ${temperature} ${temperature} ${tempDamp} ${seed}
fix             3 all temp/csvr 22.72 ${temperature} ${tempDamp} ${seed}
fix             3 all temp/csvr 22.72 22.72 ${tempDamp} ${seed}
fix             3 all temp/csvr 22.72 22.72 100 ${seed}
fix             3 all temp/csvr 22.72 22.72 100 745823


run             250000
PPPM initialization ...
  extracting TIP4P info from pair style
  using 12-bit tables for long-range coulomb (../kspace.cpp:340)
  G vector (1/distance) = 0.37223075
  grid = 24 27 25
  stencil order = 5
  estimated absolute RMS force accuracy = 0.0030973024
  estimated relative force accuracy = 9.3274341e-06
  using double precision FFTW3
  3d grid and FFT values/proc = 4410 672
Last active /omp style is kspace_style pppm/tip4p/omp
Neighbor list info ...
  update every 1 steps, delay 7 steps, check yes
  max neighbors/atom: 2000, page size: 100000
  master list distance cutoff = 10.8154
  ghost atom cutoff = 10.8154
  binsize = 5.4077, bins = 4 5 5
  1 neighbor lists, perpetual/occasional/extra = 1 0 0
  (1) pair lj/cut/tip4p/long/omp, perpetual
      attributes: half, newton on, omp
      pair build: half/bin/newton/omp
      stencil: half/bin/3d
      bin: standard
Per MPI rank memory allocation (min/avg/max) = 10.21 | 10.22 | 10.23 Mbytes
Step Temp PotEng TotEng E_pair E_mol Press Lx Ly Lz Volume Pxx Pyy Pzz Pxy Pxz Pyz Enthalpy 
46250000    22.946032   -4698.3759   -4659.0472   -4698.3759            0    2056.1793    17.915587    23.299028    21.827867    9111.2961    2354.9936    1776.4606    2037.0838    82.397391    106.20185   -17.542413   -4385.8243 
46251000    22.647323    -4700.179   -4661.3622    -4700.179            0    2081.7871    17.927935    23.173098    21.914707     9104.373    2059.3921    2048.1263     2137.843    165.14911   -11.799886    256.96796   -4384.9468 
46252000    23.322677   -4700.4256   -4660.4513   -4700.4256            0    2556.6605    17.846323    23.312642    21.842014    9087.2594    2578.2966    2601.0189     2490.666   -521.55325    23.370811    61.089133   -4321.6213 
46253000    22.642651   -4700.9863   -4662.1776   -4700.9863            0    2137.9198    17.901893    23.296919     21.83498     9106.474    2015.5953    1944.0378    2454.1262    -357.9631    66.279624    62.353361   -4378.2435 
46254000    22.031565   -4702.0968   -4664.3354   -4702.0968            0    2195.9904    17.835175    23.263191    21.921549    9095.3182    2168.1581    2013.3676    2406.4454    284.73313   -73.097086    95.397081   -4373.0464 
46255000    23.844982   -4701.8739   -4661.0044   -4701.8739            0    2039.9494    17.842871    23.319169    21.884402     9105.682    2158.4679    1644.7438    2316.6366     33.97455   -128.66904    233.91538   -4390.1052 
46256000    22.479068   -4698.2125   -4659.6841   -4698.2125            0    2261.9293    17.948946    23.166866    21.883206    9099.4931    2126.0248    2501.2982     2158.465   -73.357261     244.9531    153.19499   -4359.5108 
46257000    23.694049   -4701.7761   -4661.1653   -4701.7761            0    2242.7085    17.926073    23.209059    21.865897    9097.2476    1959.9599    2494.4737    2273.6919   -128.98619    21.516296   -51.790683   -4363.6162 
46258000    21.931631   -4698.2833   -4660.6933   -4698.2833            0    2164.5036    17.860558    23.321623    21.851784    9102.0811    2593.0275    2190.6165    1709.8667   -273.76971   -95.241981    154.21678   -4373.3673 
46259000    23.296842   -4698.6671   -4658.7371   -4698.6671            0    2063.7111     17.92925    23.210872    21.870944    9101.6706    1858.2494    2531.9336    1800.9503     361.0424    9.9076639   -233.58663   -4384.8031 
46260000    23.195012    -4701.051   -4661.2955    -4701.051            0    2117.0583    17.847475    23.313198    21.881489    9104.4876    1989.9245    2093.9599    2267.2904    439.87949    170.93015    271.87807   -4380.1933 
46261000    22.633648   -4700.3933      -4661.6   -4700.3933            0    2304.7387    17.868173    23.325841    21.819485    9094.1466    2342.4503     2137.498    2434.2679   -206.06121   -115.08866    183.44215   -4355.9253 
46262000    22.754343   -4696.6726   -4657.6724   -4696.6726            0    2016.9118    17.885366    23.274819    21.880326    9108.3131    1869.9326    2052.7236    2128.0792    66.357306   -349.45819    -56.81934   -4389.7551 
46263000    23.526547   -4698.9923   -4658.6686   -4698.9923            0    2448.0304    17.870974    23.235006    21.887175    9088.2595    2544.8598    2422.0617    2377.1698   -428.80292   -83.212495    282.06578   -4334.1994 
46264000    23.018636    -4702.082   -4662.6289    -4702.082            0    2136.2487    17.923114    23.156515    21.929014     9101.349    2056.1895    2367.9611    1984.5955    75.511656    3.0575278   -359.69946   -4379.0764 
46265000    22.602653    -4700.214   -4661.4738    -4700.214            0    2186.6005    17.885138    23.291008     21.85287    9103.0949    2325.3523    1965.6343    2268.8148   -51.114759   -3.5916012    91.091171   -4371.1823 
46266000    22.704705   -4700.0429   -4661.1278   -4700.0429            0    2161.6003    17.848047    23.351478    21.831107    9098.7311    2318.1589     2056.341    2110.3011   -194.23101   -64.656788   -91.225847   -4374.2928 
46267000    22.542034   -4699.5477   -4660.9114   -4699.5477            0     2149.129    17.888519    23.261627    21.878684    9104.0714    2252.7663    1893.4397    2301.1811    95.315948    137.79461    30.280105   -4375.5639 
46268000    21.511434   -4701.0338   -4664.1639   -4701.0338            0    2149.4053    17.926976    23.168544    21.907482    9099.0959    1844.5994    2399.4244    2204.1922   -158.43727   -83.133476    166.85944   -4378.9357 
46269000    22.035285   -4699.5657    -4661.798   -4699.5657            0    2167.2426    17.885686    23.259161    21.877134    9101.0201    1821.7394    2286.1588    2393.8296   -338.38569   -136.35627    120.79066    -4374.142 
46270000    21.989839   -4699.7637   -4662.0738   -4699.7637            0    2222.1527     17.94635    23.101071    21.938267    9095.1645     1589.275    2450.7347    2626.4483   -364.12798   -150.97844   -107.93578   -4367.3194 
46271000    21.782039   -4700.8364   -4663.5027   -4700.8364            0    2183.4867    17.949571    23.210729    21.838259    9098.3125    1882.6309    2123.8866    2543.9425   -181.10314    5.5439809    296.69575   -4373.7768 
46272000    24.802404   -4702.2202   -4659.7097   -4702.2202            0    2062.4253     17.93775    23.226123    21.847796    9102.3247    2161.5583    2275.9627    1749.7548   -310.89565   -19.025807    -103.8109   -4385.9268 
46273000    22.908942   -4703.4222   -4664.1571   -4703.4222            0    1960.0334    17.871391    23.272076    21.902558    9109.3692    1919.2268    2442.6043     1518.269    194.38419   -2.1683627    308.65422   -4403.7651 
46274000     24.05072    -4696.909   -4655.6869    -4696.909            0    2437.6258    17.809759    23.269645    21.917837    9083.3382    3009.4529    2245.7924    2057.6321     125.5815   -19.823627   -51.885794   -4332.7718 
46275000     22.74568     -4698.47   -4659.4846     -4698.47            0    1993.3314     17.81665    23.266469    21.942648    9095.8974    2212.2819    2183.3076    1584.4048    605.25076   -8.9259836    8.5239865   -4395.0606 
46276000    23.872724   -4700.2631   -4659.3461   -4700.2631            0    2195.7412    17.903504     23.26952    21.829937    9094.4819    2319.4172    2095.1389    2172.6676    -242.8814    16.651113    144.68487   -4368.1168 
46277000    23.456971   -4700.1476   -4659.9431   -4700.1476            0    2211.3839    17.913899    23.287281    21.804451    9096.0755    2158.5107    2149.3128    2326.3283    94.040433   -108.74145    14.206956   -4366.5877 
46278000    22.325283    -4700.756   -4662.4913    -4700.756            0    2282.1604    17.889502    23.249597    21.857578    9091.0851    2176.7459    2491.8069    2177.9283    -572.9481    33.144094    133.81289    -4359.913 
46279000    22.062844    -4701.724   -4663.9091    -4701.724            0    2235.7993    17.981842    23.207664    21.796349    9095.9771    1983.2832    1956.4787     2767.636    -76.81117  -0.62245398    122.94463    -4367.318 
46280000    24.039943   -4701.3816    -4660.178   -4701.3816            0    1812.7828    17.863968    23.335964    21.860577    9113.0825    1964.3589    1529.1465    1944.8431    14.435103   -72.146448    132.75155   -4419.2502 
46281000    23.968305   -4700.1042   -4659.0234   -4700.1042            0    2070.1917    17.843646    23.304961    21.883439    9100.1293    1995.5784     2334.038    1880.9587   -174.09985    -132.7543    59.034364   -4384.2757 
46282000    23.080249   -4699.8317    -4660.273   -4699.8317            0    2210.9619    17.908322     23.28311    21.837823    9105.5296    2083.3289    2299.0164    2250.5402   -20.392649    103.58633    158.26439   -4366.6687 
46283000     22.80969   -4699.6377   -4660.5427   -4699.6377            0    2163.5524    17.851231    23.209693    21.955128    9096.4834    2364.4118    2208.8402    1917.4053    -365.4735    21.998154    164.72231   -4373.5196 
46284000    22.663916   -4702.7028   -4663.8576   -4702.7028            0     2303.539    17.900694    23.234387    21.869115    9095.6194     2116.481    2242.4695    2551.6664    59.796386   -70.289205    45.300645   -4358.2925 
46285000    22.057009   -4702.6111   -4664.8061   -4702.6111            0    1801.2731     17.88066    23.271468    21.912314    9117.9153    1922.6639    1692.9031    1788.2524    412.16521    136.39281    173.50679    -4425.281 
46286000    22.761111   -4702.0686   -4663.0569   -4702.0686            0      2263.88    17.895165    23.231188     21.87321     9093.261    2053.4776    2228.6258    2509.5367   -407.13869   -38.742771   -168.63066   -4362.8304 
46287000    22.457862     -4698.54    -4660.048     -4698.54            0     2181.981    17.890222    23.229844    21.902094    9102.2265    2257.8473    1792.8741    2495.2217   -169.72172    196.59359    318.24981   -4370.3974 
46288000    22.143199   -4699.4894   -4661.5367   -4699.4894            0     2261.601    17.876017    23.298466    21.836548    9094.5679    2279.0585    1900.8018    2604.9427   -241.03121    104.42833    -53.60533   -4361.5693 
46289000    23.286698   -4700.2123   -4660.2997   -4700.2123            0    2170.3944    17.848384    23.288997    21.907767    9106.4225    1915.6496    2007.3278    2588.2057    246.34194    122.54247    261.85776   -4372.0543 
46290000    22.737488   -4702.0147   -4663.0434   -4702.0147            0    1928.9183    17.876743    23.249091    21.918401    9109.6822    1881.1749    1989.5461    1916.0339   -101.88749   -114.16629   -161.63533   -4406.7762 
46291000     23.20122   -4702.1511    -4662.385   -4702.1511            0     2311.718    17.891277    23.223703    21.882579    9092.2489     2071.538    2195.7766    2667.8394   -233.80467    67.788342        155.9   -4355.8486 
46292000    23.396229   -4701.7685   -4661.6681   -4701.7685            0    2211.7545    17.894213    23.282176    21.849211    9102.7353    2195.1838    2131.3323    2308.7475    291.78043   -25.066237   -124.47072   -4368.0487 
46293000    22.957892   -4699.0904   -4659.7413   -4699.0904            0    2138.4324    17.866512    23.183888    21.967115    9099.1136    2191.4107     2038.926    2184.9605   -102.43433   -35.338909    172.71401   -4375.9687 
46294000     23.38694   -4700.8669   -4660.7825   -4700.8669            0    2086.2888    17.964917    23.188677    21.831983    9094.8255    1815.9759    2122.7831    2320.1073   -100.13227    47.990979    121.46518   -4384.0598 
46295000    22.113708   -4703.8994   -4665.9973   -4703.8994            0    2030.6064    17.891348     23.25026    21.892387     9106.762    1516.3808    2374.5876     2200.851    -342.3023   -28.653379    55.392802   -4396.3068 
46296000    23.322036    -4700.823   -4660.8498    -4700.823            0    2048.2222    17.836694    23.373109    21.810775    9092.8904     2178.472    1556.1703    2410.0243    168.09429   -339.51004    34.973821   -4389.2341 
46297000    22.286814   -4699.8691   -4661.6703   -4699.8691            0    2255.4064    17.808507     23.32346    21.885514    9090.2798    2728.0253    2221.6918    1816.5021    28.553494   -40.915464    41.367367   -4362.6657 
46298000    22.925911   -4700.1136   -4660.8194   -4700.1136            0    1820.7815    17.958152    23.241972    21.837773    9114.7121    1412.0944    2083.9735    1966.2765    -394.1797   -71.197284    19.841113   -4418.7852 
46299000    23.607625   -4700.3834   -4659.9208   -4700.3834            0    2214.1723    17.924421    23.195395    21.869934     9092.732    2099.1368    2463.3513    2080.0289    243.95816     87.52096    157.43603   -4366.3034 
46300000    23.773355   -4702.9659   -4662.2192   -4702.9659            0    2179.9026    17.935869    23.223992    21.838307    9096.5826    2197.5126    1967.1606    2375.0346   -185.80066    83.903705    41.363568   -4373.0239 
46301000    23.890321    -4699.811   -4658.8638    -4699.811            0    2170.4881    17.897119    23.228358     21.86226    9088.5937    2065.5416    2175.7711    2270.1515   -393.57777    72.527738    240.03207   -4371.1704 
46302000    22.650836   -4700.9228   -4662.1001   -4700.9228            0    2213.8909    17.855411    23.356524    21.810649    9095.9207    1966.9022    2190.3461    2484.4245   -9.3001082   -83.956095   -79.589124   -4368.4171 
46303000    22.162134   -4700.4969   -4662.5117   -4700.4969            0    2350.9995    17.865136    23.306486    21.828205    9088.6872    2442.4803    2302.1335    2308.3847   -198.08729    123.94326    164.51161   -4350.8887 
46304000    23.352267   -4699.9598   -4659.9348   -4699.9598            0    2065.2723    17.899422    23.252122    21.877378    9105.3548    2066.6705    2142.6933    1986.4533   -121.72838   -100.78439   -21.390703   -4385.6826 
46305000    21.942704   -4699.2297   -4661.6206   -4699.2297            0    2274.0916    17.935988    23.243418     21.82351    9098.0835    1902.4612    2605.5796     2314.234    -9.548379    -10.40844    74.340587     -4359.88 
46306000    23.235416   -4697.6368   -4657.8121   -4697.6368            0    2173.3133    17.905115    23.225957    21.878249    9098.3637    1918.3548    2037.4723    2564.1127    -83.67599   -283.45379   -312.83803   -4369.4345 
46307000    24.096971   -4703.2295   -4661.9281   -4703.2295            0    2072.3825    18.021362    23.177368    21.799109    9105.2203    1564.8881    2181.0816    2471.1778   -73.734327    189.02733    283.74804   -4386.7358 
46308000    21.954957   -4698.8674   -4661.2373   -4698.8674            0    2206.7413    17.895153    23.225114    21.887395     9096.773    2435.0885     2237.604    1947.5313   -64.989527    9.7333239   -171.35046   -4368.4754 
46309000    23.154455   -4700.5396   -4660.8536   -4700.5396            0    2041.0495    17.854409    23.251784     21.91787     9099.135    2119.1697    1965.4038    2038.5751   -168.75879   -22.474459    254.70457   -4390.0032 
46310000    21.511753   -4701.6057   -4664.7353   -4701.6057            0    2383.2885     17.88862    23.280813     21.83473     9093.327    2481.1008    2455.9134    2212.8514   -94.826166   -71.039017    106.52385   -4348.6711 
46311000    22.881422    -4700.333    -4661.115    -4700.333            0    2143.5895    17.850036    23.277967    21.885538    9093.7156    2224.9663    2006.1187    2199.6834    66.904776   0.89650426    56.098492   -4376.8268 
46312000    22.848726   -4700.0767   -4660.9148   -4700.0767            0    2101.2988    17.922154    23.232784    21.866037    9104.6138    1733.9107     2231.963    2338.0226    -150.8944   -50.062531   -4.0948474   -4381.9013 
46313000    24.583899   -4700.4712   -4658.3352   -4700.4712            0    2314.6649      17.9719     23.18737    21.832627    9098.1164    1928.0835    2247.4654     2768.446   -9.1954555    70.288504    1.6341831   -4351.2099 
46314000     23.50297   -4701.6677   -4661.3844   -4701.6677            0    2091.4676    17.951878    23.183173    21.863877    9099.3413    1811.1962     2259.816    2203.3905   -141.94991     285.7168    180.90825   -4383.8371 
46315000    22.448606   -4702.2085   -4663.7324   -4702.2085            0    2425.6163    17.859532    23.332039    21.813095    9089.5018    2560.7757    2028.1095    2687.9637    288.32785   -137.76803   -61.352896   -4342.1901 
46316000    23.050021   -4698.0976   -4658.5907   -4698.0976            0    2261.2843    17.830373    23.294623    21.895119    9094.1775    2335.1252     2121.301    2327.4267   -262.37133     268.3151     339.5317   -4358.6782 
46317000    21.052154   -4700.1942   -4664.1115   -4700.1942            0    2296.7936    17.805557    23.271941    21.937325    9090.1667    2661.5707    2235.3431     1993.467    -211.0757   -28.479697    126.71964   -4359.6239 
46318000    22.337576   -4699.7595   -4661.4736   -4699.7595            0    2057.4041    17.828684    23.267702    21.958877    9109.2564    2021.7573    2030.0215    2120.4334    43.830437    252.11649    208.11521   -4388.1492 
46319000    21.419937   -4702.6424   -4665.9293   -4702.6424            0     2075.818    17.957524    23.199736    21.846638     9101.524    1407.9526    2117.5761    2701.9253   -183.64541    40.586425    -162.9235   -4390.3928 
46320000    22.929426   -4700.8499   -4661.5497   -4700.8499            0    2005.4182    17.886856    23.327181    21.845019    9114.8328    2342.8711    1624.2766    2049.1069   -75.397525     60.86687    199.25857   -4394.9685 
46321000    22.575173   -4700.5394   -4661.8463   -4700.5394            0    2204.9856    17.930399    23.212003    21.860905    9098.5193     1887.208    2696.7834    2030.9655   -420.34086    51.105427    204.62653   -4369.2611 
46322000    24.634643   -4697.8232   -4655.6003   -4697.8232            0     2410.553    17.872858    23.301533    21.826631     9090.028     2894.669    2260.1061     2076.884    39.379179   -349.88754   -1.4592606   -4336.0363 
46323000    22.602089   -4703.8683   -4665.1291   -4703.8683            0    2074.1093    17.843272    23.340921    21.841442     9096.489    1890.2273     1856.588    2475.5126   -1.5720197    88.226442     98.71175   -4389.9716 
46324000    23.752347   -4702.0269   -4661.3161   -4702.0269            0    2083.6827     17.83589    23.246413    21.944154    9098.4956    2065.6433    2600.9913    1584.4135    262.09129   -102.47772   -61.800464   -4384.8277 
46325000    22.598089   -4699.3946   -4660.6623   -4699.3946            0    2135.1922    17.840612    23.257147    21.917189    9093.9184    2553.1274    2134.2724    1718.1768   -22.553939    319.11472    311.48632   -4377.4814 
46326000    21.852258   -4700.5763   -4663.1223   -4700.5763            0    1829.3007    17.937987    23.229865    21.861141     9109.472    2183.7554    1878.4266    1425.7201    476.44704   -80.548334    290.14888   -4420.0955 
46327000    22.905818   -4702.0478   -4662.7881   -4702.0478            0     2321.436    17.829531    23.248135    21.928064    9089.2559    2692.0914    2406.9063    1865.3104   -13.671637    77.836992   -22.414074   -4355.0644 
46328000    23.625781   -4698.7199   -4658.2261   -4698.7199            0    2177.3282    17.886436    23.272735    21.863833    9101.1769    2383.5556    2019.8664    2128.5627   -271.56244   -36.624721    259.33028   -4369.2264 
46329000    22.112909   -4699.7576   -4661.8568   -4699.7576            0    2311.8495    17.833899    23.349521     21.84082    9094.8014     2442.628    1906.3288    2586.5916    10.907215   -31.975614   -106.19733   -4355.2169 
46330000    23.651464   -4698.7315   -4658.1937   -4698.7315            0    1987.4573    17.889862    23.280339    21.878892    9112.1657    1845.5064    2072.9498    2043.9156   -148.80682   -7.1461446    47.147578   -4394.0774 
46331000    22.353895   -4699.7967   -4661.4829   -4699.7967            0    2316.0667    17.870441    23.265305    21.862031    9089.3856    2345.5396    2194.3734     2408.287    263.90203   -249.77677    87.032651   -4354.4666 
46332000    22.404466     -4701.51   -4663.1095     -4701.51            0    2161.6807    17.884286    23.227579    21.904902    9099.4862    2050.0204    2386.9743    2048.0475    -390.7144     151.3167    32.730994     -4376.24 
46333000    22.273003   -4702.2092    -4664.034   -4702.2092            0    2066.1869    17.897952    23.179768      21.9503    9106.5292    1940.3245    2471.4644    1786.7717   -61.904842   -66.089255    25.199912    -4389.625 
46334000    24.192533   -4698.7027   -4657.2375   -4698.7027            0    2289.8709     17.95571    23.216884     21.81291    9093.2709    1994.0663    2233.2634     2642.283   -162.13741    124.59463    28.654616   -4353.5639 
46335000    22.247098   -4700.6877   -4662.5569   -4700.6877            0    1978.4484    17.904711     23.30807    21.839399    9114.1107    1907.6928     1943.067    2084.5853    90.505581    36.266252    43.744668   -4399.5817 
46336000     22.78662   -4700.2532   -4661.1977   -4700.2532            0    2087.7802    17.864628    23.244524    21.912524      9099.28    2258.4163    1821.0812    2183.8432   -190.12291   -162.34598    386.86241   -4384.1417 
46337000     22.15195   -4701.3472   -4663.3795   -4701.3472            0    2194.5493    17.788588    23.349054    21.901074    9096.5389    2546.6586    2154.2165    1882.7728    49.164758    81.541836   -301.58997   -4372.2425 
46338000    22.816969   -4698.0881   -4658.9806   -4698.0881            0    2108.7487    17.895466     23.29401     21.81956    9095.6397    2206.7248    2154.5802    1964.9409   -491.33299    35.028609    282.96558   -4379.2539 
46339000    21.668426   -4701.0158   -4663.8769   -4701.0158            0    2173.0536    17.859593    23.224486     21.91156     9088.474    2313.5763    2362.6535    1842.9311    108.89407    38.375248   -352.56777   -4375.8472 
46340000    22.569763   -4700.3045   -4661.6207   -4700.3045            0     2035.146    17.870485    23.308303    21.869335     9109.249    2291.0821    1879.3235    1935.0326    34.921345   -131.36139     211.2175   -4391.2535 
46341000    21.520507   -4700.1834    -4663.298   -4700.1834            0    2162.3265    17.846018    23.246086    21.911189    9089.8583      1962.79    1979.7266    2544.4631   -151.67957    297.62873   -67.375709   -4376.6464 
46342000    22.706368   -4698.3043   -4659.3864   -4698.3043            0    2177.0465    17.860122    23.258376    21.898101     9096.415    1884.4904    1966.2531    2680.3959    270.05116    13.895593     217.2862   -4370.5753 
46343000    22.400502   -4702.0869   -4663.6932   -4702.0869            0    2231.8539    17.958705    23.241584    21.800224    9099.1682    1950.6892    2323.3038    2421.5687   -178.57732    114.35478    19.515428   -4367.5216 
46344000    22.242489   -4700.4802   -4662.3573   -4700.4802            0    2034.8363     17.87865    23.240709    21.921947    9108.8434     2119.596    2036.8093    1948.1037    151.98703   -36.164825  -0.49756601   -4392.0432 
46345000    22.690975   -4701.5888   -4662.6972   -4701.5888            0    2419.1822    17.873689    23.259027    21.868441    9091.2494    2577.2561     2600.927    2079.3635   -52.529254    73.361758    55.482119   -4341.9462 
46346000    23.821611   -4700.7559   -4659.9264   -4700.7559            0    2025.2634    17.925592    23.234478    21.856052     9102.866    1966.8498    2114.6303    1994.3101    69.638738   -347.76011   -202.19727   -4391.0606 
46347000    23.266876   -4700.9352   -4661.0565   -4700.9352            0    2135.2008    17.894391    23.185557     21.92867    9098.0169    2089.6315    2101.5407    2214.4304   -311.30915   -26.765053    245.65914   -4377.7469 
46348000    21.406973   -4700.5405   -4663.8497   -4700.5405            0    2384.9192    17.893583     23.25616    21.840379    9088.5688    2390.9684    2608.6949    2155.0944   -257.39198    -47.90551   -45.877382   -4347.7347 
46349000    22.843095    -4700.042   -4660.8897    -4700.042            0    2078.9576    17.858776    23.299458    21.869881    9100.0534    2409.6689    2097.9658    1729.2382   -84.411156    202.04068     132.4869    -4384.981 
46350000    22.657876   -4702.7648     -4663.93   -4702.7648            0    2108.9659    17.866687    23.345873    21.826103    9103.9601    2265.2347    1990.1524    2071.5107    101.00346   -63.101768    39.753813   -4383.9185 
46351000    21.706946   -4702.4448   -4665.2398   -4702.4448            0    2112.9108    17.875324    23.325974    21.826486    9100.7572    2146.7505    1996.8035    2195.1784   -100.53384    65.776476     265.5916   -4384.8033 
46352000    22.664641   -4698.8672   -4660.0208   -4698.8672            0     2075.525    17.889405    23.232477     21.89748    9100.9255    2079.2443     2233.717    1913.6137    95.992673   -113.82878   -12.695099   -4384.5412 
46353000    22.836336    -4699.334   -4660.1933    -4699.334            0    2384.9099     17.90799    23.214419    21.861043     9088.151    2226.3405    2180.7471     2747.642    -23.20086    213.91911    240.22799   -4344.0941 
46354000    23.580321   -4701.7761   -4661.3602   -4701.7761            0    2134.6677    17.873141    23.257759    21.886743    9098.0831    2112.1495    1912.5408    2379.3128    -26.68223   -343.52691    -49.43233   -4378.1192 
46355000    23.209118   -4699.4469   -4659.6673   -4699.4469            0    2167.5894    17.879738    23.237528    21.899049     9098.637    2114.8694    2540.3457    1847.5532    13.210661    373.68256    322.09182   -4372.0406 
46356000    21.795854   -4701.4573   -4664.0999   -4701.4573            0    2216.7125    17.938221    23.237345    21.821987    9096.2036    2141.6187    2531.5004    1977.0183   -344.21327   -138.36632    106.33851   -4370.0335 
46357000    22.525951   -4702.1553   -4663.5466   -4702.1553            0     1989.336    17.901055    23.300369    21.818065    9100.3407    1874.3772    2043.9936    2049.6373   -103.53811   -123.52018    111.21543   -4399.5236 
46358000    22.476051   -4699.4042    -4660.881   -4699.4042            0    2376.2729    17.818419     23.31571    21.876068    9088.3925    2603.5833    2528.8387    1996.3967    126.75141    113.28178    172.52848   -4345.9182 
46359000    23.158701   -4701.8506   -4662.1574   -4701.8506            0    2046.3626    17.855355    23.327758    21.868837    9108.9261    2290.4848    1905.5136    1943.0893     69.80544    68.722256   -109.57155   -4390.3097 
46360000    22.064308   -4700.2158   -4662.3984   -4700.2158            0    2161.0738    17.894117    23.215813    21.903964    9099.4865    2270.8137    2351.8896    1860.5181   -230.27535    112.77883    193.04941   -4375.6094 
46361000    22.779992   -4700.0999   -4661.0558   -4700.0999            0    2047.6333    17.903263    23.286184    21.820288    9096.8492    2205.9342    2046.9116     1890.054     6.506066   -136.63814    62.813785   -4389.3999 
46362000    23.470614   -4702.1415   -4661.9137   -4702.1415            0    2129.4408    17.847057    23.318222    21.857587    9096.2888    2270.4272    2004.3451      2113.55   -75.064731   -49.856274    226.35766    -4379.422 
46363000     21.76734   -4698.9757   -4661.6673   -4698.9757            0    2392.1749    17.924479    23.167565    21.881714    9086.7439    1962.5045    2746.6283     2467.392    -346.1528   -0.3910065    43.807484   -4344.6542 
46364000    23.635606   -4698.4604   -4657.9498   -4698.4604            0    2201.4184    17.830534     23.32784    21.882249    9101.8742    2424.9514    2088.4013    2090.9026    84.398261    14.599868    110.12269   -4365.7302 
46365000    22.023558    -4697.941   -4660.1934    -4697.941            0    2051.0978    17.933244    23.221118    21.861928    9103.9623    1821.4961    2075.7954     2256.002   -709.90746   -40.015304   -217.22022   -4387.8651 
46366000    23.109335   -4702.3952   -4662.7866   -4702.3952            0    2329.5346    17.852445    23.223331    21.924728    9089.8437    2510.3074    2510.2837    1968.0127   -101.49858    20.072765    294.97157   -4353.9694 
46367000     21.45929   -4701.2442   -4664.4637   -4701.2442            0    2106.9107    17.879398    23.350251     21.80271    9102.3795    1685.0002    2184.4632    2451.2687   -150.01805    51.916189   -114.62929   -4384.7737 
46368000    22.629649   -4702.3753   -4663.5889   -4702.3753            0    2167.7306    17.884147    23.220414    21.909428    9098.4883    2227.5325    1826.9017    2448.7575   -370.97668    102.40143    289.25443   -4375.9481 
46369000    23.298195   -4700.1949   -4660.2625   -4700.1949            0    2225.6695    17.983645    23.219008    21.771288    9090.8711    1669.2081    2432.1655    2575.6349    109.87856    111.85439   -159.87955    -4365.181 
46370000    22.418063    -4700.516   -4662.0922    -4700.516            0    2345.3203    17.890871    23.210025    21.879944    9085.5933    2252.3266    2361.4411    2422.1932   -36.360499    65.594927    140.31317   -4351.3277 
46371000    22.413218   -4700.2709   -4661.8554   -4700.2709            0    2112.6375     17.91793    23.130662    21.947089    9096.0495    2289.1533    2445.8891      1602.87   -4.2421582    76.095917   -32.233266   -4381.6002 
46372000    23.153979   -4697.4825   -4657.7973   -4697.4825            0     1960.565    17.828753    23.289442    21.933415    9107.2302    2406.0228    1861.8373    1613.8349    -3.148767   -195.80509     74.14671   -4397.3958 
46373000     21.02077   -4700.7118   -4664.6829   -4700.7118            0    2250.4679     17.84121     23.26313     21.90154    9090.0675    2070.4168    2462.5377    2218.4493   -153.12274    130.96382    222.90063   -4366.3399 
46374000    22.696201   -4697.9905     -4659.09   -4697.9905            0    2280.1786    17.897542    23.213616    21.894684    9096.5111    2161.5962    2245.2921    2433.6475   -9.9712666    117.79716   -168.64928    -4356.594 
46375000    24.000241   -4700.0218   -4658.8862   -4700.0218            0    2066.2849    17.902778    23.287896    21.855176    9111.8169    1986.1299    1962.1286    2250.5963   -238.17909     95.69783    101.12936   -4384.3048 
46376000    22.052826   -4700.1842   -4662.3864   -4700.1842            0     2260.284    17.866391    23.296214    21.861381     9099.128    2438.0579    1955.5782    2387.2159    294.46981   -177.12538   -33.335201   -4362.4435 
46377000    23.079017   -4700.2178   -4660.6612   -4700.2178            0    2270.4725    17.907123    23.220214    21.880191    9097.9415    2216.0082    2246.4701    2348.9392   -85.494906    258.16672    14.480235   -4359.4055 
46378000    23.171265   -4700.7197   -4661.0049   -4700.7197            0    2103.1816    17.916747    23.204005    21.886862    9099.2499    1767.2961    2331.0804    2211.1681    -180.2388    127.72424   -18.248448   -4381.9059 
46379000    23.772709   -4700.3199   -4659.5743   -4700.3199            0    2334.7157    17.917498    23.240128    21.833901    9091.7443    2355.3816    2304.4227     2344.343    345.22177    -109.8491    85.964893   -4350.0055 
46380000     22.38982   -4701.7458   -4663.3704   -4701.7458            0    2043.2323    17.780695    23.359347     21.91052    9100.4344    2378.0303    1699.3848    2052.2818   -261.21071    -72.52156     69.81692   -4392.1916 
46381000    22.685427   -4703.1577   -4664.2757   -4703.1577            0    2260.8381    17.796388    23.305261    21.913113    9088.4521    2508.3545    2232.8121    2041.3478    126.40327    24.508584     96.73143   -4364.6112 
46382000    23.672763   -4698.6836   -4658.1093   -4698.6836            0    2176.0619    17.934652    23.170133    21.886195      9094.77    2001.5289    2472.7849    2053.8719   -236.78333    126.02326   -162.91984    -4369.481 
46383000    22.720188   -4702.0222   -4663.0806   -4702.0222            0    2102.4395    17.875949    23.275669    21.860376    9095.5485      2243.28    1975.8409    2088.1977    150.11494    22.946991     109.8636   -4384.1935 
46384000    21.756519   -4700.7729    -4663.483   -4700.7729            0    2096.7473     17.84386    23.312179     21.86651     9096.015    2258.3873    2133.7588    1898.0956    -325.6803   -27.821387   -39.587005   -4385.3368 
46385000    21.843958   -4702.4723   -4665.0325   -4702.4723            0    2293.3698    17.896473    23.276355     21.81712    9088.2415    2090.5767    2207.1598    2582.3727   -6.7827466   -172.12604    348.39054   -4361.0632 
46386000    22.463619   -4699.3749    -4660.873   -4699.3749            0    2189.9376    17.871198    23.263858    21.862735    9089.4978    2162.2148    2008.9161    2398.6819   -213.58703    163.51196   -149.82943   -4370.5727 
46387000    22.655879   -4702.2137   -4663.3823   -4702.2137            0    2234.5006    17.840443    23.251139    21.916095     9091.029    2438.9088    2108.0653    2156.5277   -95.805452   -16.684268    291.61052   -4367.1248 
46388000    22.679918   -4700.4389   -4661.5663   -4700.4389            0    1988.3086    17.955109     23.23771    21.837504    9111.3842    1872.3407    1763.6736    2328.9116   -302.62648    82.440025   -225.55849   -4397.3594 
46389000    20.987874   -4702.8318   -4666.8593   -4702.8318            0     2141.353    17.862985     23.30639    21.856994    9099.5408    2142.3147    1981.2521    2300.4922    -349.6755   -297.42209    343.86108   -4382.6858 
46390000    22.072916   -4699.3257   -4661.4935   -4699.3257            0    2312.0466    17.882661    23.217511    21.890843    9088.8781    2146.9033    2533.6632    2255.5735   -483.98973    82.751842     183.0731   -4355.0271 
46391000    21.975776   -4701.3257     -4663.66   -4701.3257            0    2207.4318    17.962862    23.170464    21.841156    9090.4606    1931.8548    2190.9429    2499.4976    451.37373   -215.80595   -49.980611   -4371.0096 
46392000     22.36566    -4702.875    -4664.541    -4702.875            0    1877.0762    17.934274    23.178122    21.909196    9107.2758    1687.5566    2033.6409    1910.0312    79.807182    93.671811    246.66694   -4415.2272 
46393000    22.374837   -4701.1526   -4662.8029   -4701.1526            0    2214.9426     17.82271    23.214901    21.989738    9098.3079    2468.2292    2310.6718    1865.9267   -96.265195   -193.39183   -185.16546   -4368.9033 
46394000    21.817365   -4699.1522    -4661.758   -4699.1522            0     2160.922    17.840561    23.283417    21.900565    9097.2588    2239.4288    2346.8979    1896.4392    71.161677    161.86738    126.50968   -4375.0594 
46395000    23.127955   -4700.2679   -4660.6274   -4700.2679            0    1978.0372    17.826816    23.322124    21.905458     9107.396    2285.2718    2122.9356    1525.9042    69.266511   -15.680617   -214.25589   -4397.9005 
46396000    22.824267   -4701.4439   -4662.3239   -4701.4439            0    2214.0458    17.917211    23.205761    21.862141     9089.896    2131.1718     2234.348    2276.6176   -65.719037    -12.87255    113.21515   -4368.8149 
46397000    21.575084   -4702.2709    -4665.292   -4702.2709            0    2104.0005    17.877691     23.23736    21.907988    9101.2431    2114.0316    2259.0372    1938.9328   -61.793886   -146.23468   -28.640264   -4386.0231 
46398000    21.371335   -4701.3755   -4664.7458   -4701.3755            0    2255.9997    17.886069    23.287555    21.833506    9094.1537    2054.9865    2447.8693    2265.1433   -150.21572    279.05096    117.69744    -4365.535 
46399000    23.785662   -4698.8123   -4658.0445   -4698.8123            0    1985.5479    17.835856    23.261547    21.944635    9104.6009    2127.9148    2002.4095    1826.3193    179.64544   -230.52379   -221.00452    -4394.401 
46400000    20.837148   -4698.4032    -4662.689   -4698.4032            0    2260.6072    17.858227    23.281992    21.890286    9101.4359     2258.275    2405.9929    2117.5537   -608.34117  -0.51566779   -48.865668   -4362.6271 
46401000    23.404135    -4699.429   -4659.3151    -4699.429            0    2203.1123    17.861915    23.216419    21.935919    9096.5998    2440.5991    2360.6693    1808.0687   -115.68075    39.973565    123.86149   -4367.0401 
46402000    22.374616   -4703.4713    -4665.122   -4703.4713            0    2048.8416     17.93085     23.22651     21.86254    9105.1153    1709.4211    1982.1531    2454.9504    95.751538   -50.125627   -399.63099   -4393.0588 
46403000    22.545515   -4699.7378   -4661.0956   -4699.7378            0     2131.648    17.936657    23.234348    21.832016    9098.4173    1773.1247    2293.0186    2328.8007     181.6056   -138.42471    359.77167   -4378.2449 
46404000    22.136327   -4701.4927   -4663.5518   -4701.4927            0    2241.9932    17.911434    23.206907    21.884961    9096.8994    2176.1509    2150.3307    2399.4981    -107.4456    118.09978    -152.9337   -4366.1089 
46405000    22.217383   -4700.3512   -4662.2713   -4700.3512            0    2334.7303    17.924723    23.240336    21.822095    9090.5735    2195.7081    2279.4412    2529.0415    222.23056   -140.82736    191.96691   -4352.7405 
46406000    20.927106   -4702.7504   -4666.8821   -4702.7504            0    2123.2865    17.812911    23.273033    21.950919    9099.9835    2587.3831    2107.8583     1674.618   -55.779994    65.207345    26.336957   -4385.0924 
46407000    22.058233   -4700.4026   -4662.5955   -4700.4026            0    2459.8724    17.932606    23.204241    21.843072    9089.1757    2367.3733    2513.3871    2498.8567    162.57045    -165.0163    263.65996   -4336.5239 
46408000    22.276104   -4700.7509   -4662.5704   -4700.7509            0    2076.1941    17.889068    23.215142    21.898292    9094.3006    1894.6596     2144.027    2189.8958   -168.04734   -163.13577    52.420015   -4387.2026 
46409000    22.304128   -4700.2832   -4662.0547   -4700.2832            0    2477.2044     17.86152    23.307438     21.82122    9084.3108    2419.0884    2325.2949    2687.2299    227.89487    42.019098    -112.4102   -4333.8614 
46410000    23.142591   -4698.9912   -4659.3256   -4698.9912            0    1962.0479    17.859226    23.309959     21.89064    9113.0257    1868.3609    1943.2744    2074.5083    14.222463   -34.008756    44.944604   -4398.5613 
46411000    21.303473   -4701.1075   -4664.5941   -4701.1075            0    2066.4813    17.894594    23.240777    21.882044    9100.3978    1990.0748    1969.5009    2239.8681   -29.514381    9.5607782    278.98462   -4390.3308 
46412000    21.784058   -4699.5017   -4662.1645   -4699.5017            0    2438.5252    17.881727    23.195371    21.884368    9077.0512    2392.7104    2327.4028    2595.4623   -194.44706   -56.625341   -134.28625   -4339.3538 
46413000    21.619286   -4699.0109   -4661.9562   -4699.0109            0    2101.2764    17.858164    23.237988     21.93807    9104.0315     1773.607    2255.2469    2274.9755    114.93652   -110.09521   -1.2424222   -4382.9635 
46414000     22.20424   -4699.7786   -4661.7213   -4699.7786            0    2160.2834    17.870243    23.362156    21.783166     9094.197    2007.8361    1852.2224    2620.7916   -236.98434    58.826942    190.26556   -4375.2039 
46415000    22.562236   -4699.9227   -4661.2518   -4699.9227            0    2163.1525    17.813572    23.271996    21.921474    9087.7085    2542.8186    1872.3192    2074.3195    250.93047    -231.9786    128.20007   -4374.5585 
46416000    22.768427   -4699.4796   -4660.4553   -4699.4796            0    2069.7003    17.843233    23.263076    21.927563    9101.8788    2097.9859    2318.7766    1792.3384   -87.288017    262.22538   -20.666689   -4385.7201 
46417000    21.898508   -4702.3994   -4664.8661   -4702.3994            0    1972.9755    17.860401    23.287729    21.900199    9108.9101     1949.949    1894.4721    2074.5055   -181.59157    -176.2762    97.368971   -4402.7679 
46418000    23.491194   -4698.1634   -4657.9003   -4698.1634            0     2242.759    17.977928     23.17775    21.816677    9090.7455    2016.8827    2413.3303    2298.0642   -324.67868   -198.42625    -44.03596   -4360.5571 
46419000    23.577466   -4699.6135   -4659.2025   -4699.6135            0     2190.885    17.898061    23.235728    21.866352    9093.6576    1996.1414    2466.6161    2109.8975    129.79315    201.83854     18.51367   -4368.6437 
46420000    22.746238   -4701.0404   -4662.0542   -4701.0404            0    2155.4563    17.867568    23.338055    21.817598    9097.8136    2097.7693    1505.9124    2862.6871   -204.21308   -66.437371   -18.243794   -4376.0633 
46421000    22.149852   -4699.9628   -4661.9988   -4699.9628            0    2334.1882    17.829217    23.341132    21.863633    9098.6408    2482.3158    2084.5486    2435.7003   -219.19798    53.518921    112.81806   -4352.2652 
46422000    23.397452   -4703.0447   -4662.9423   -4703.0447            0      2058.11    17.818339    23.369021    21.851571    9098.9317    2251.7003     1960.397    1962.2329   -204.70893   -73.390689    236.39129    -4389.834 
46423000    21.844482   -4700.0774   -4662.6367   -4700.0774            0    2309.7789    17.819273    23.329347    21.876803    9094.4502    2618.5904    2276.5231    2034.2232    310.63932   -212.14696   -166.83715   -4356.2833 
46424000    22.864964   -4702.3981   -4663.2083   -4702.3981            0    2145.7524    17.888804    23.219592    21.911055     9101.211     2190.054    2158.5305    2088.6726    62.026598   -65.330538    307.33211   -4378.3987 
46425000     23.26532   -4699.8221   -4659.9461   -4699.8221            0    2130.9649    17.926354    23.208401    21.882845    9104.1833    2063.1442    2071.8554    2257.8951   -264.29628    138.39721    20.624944   -4377.0069 
46426000    22.904267   -4702.5786   -4663.3214   -4702.5786            0    2124.6918    17.870833       23.244    21.899238    9096.7169    2044.1179    2054.5363    2275.4211   -289.48157   -94.351333    78.486053   -4381.4465 
46427000    23.621944   -4699.0035   -4658.5163   -4699.0035            0    2345.4879    17.860593    23.275533    21.873103    9092.9733    2293.3567    2331.9706    2411.1363    112.44935   -78.265122   -82.017568   -4347.4772 
46428000     23.87989   -4701.4029   -4660.4736   -4701.4029            0    1971.5309    17.862868    23.261619    21.917272    9107.0482    1993.8624    1535.2762    2385.4542   -130.36257   -53.614034    80.884918   -4398.6209 
46429000    22.411361   -4700.6721   -4662.2598   -4700.6721            0    2030.7051    17.923403    23.228304    21.885321    9111.5211    1374.2953    2281.8635    2435.9566    95.822151    234.85922    137.84467   -4392.4152 
46430000    22.908826   -4702.4853   -4663.2203   -4702.4853            0    2067.4591    17.885046    23.245785    21.908458    9108.4838    1888.5088    2555.3317    1758.5369     9.777853   -50.500979   -29.876415   -4388.5834 
46431000    23.343579   -4700.2457   -4660.2356   -4700.2457            0    2443.3901    17.872665    23.299633    21.820908    9086.8052    2334.4328    2268.0094    2727.7281   -20.089005    108.80284    203.91493   -4336.4333 
46432000    23.344752   -4698.6668   -4658.6547   -4698.6668            0    2210.5546    17.860042    23.292218    21.865348    9095.9846    2561.1228     2008.272    2062.2689    156.01403   -352.41931    51.280859   -4365.4123 
46433000    22.856964    -4703.008   -4663.8319    -4703.008            0    1764.1849    17.880768    23.315909    21.870536    9117.9653    1504.4963    1688.9903    2099.0682   -533.89185    107.91391    134.32035   -4429.2373 
46434000    22.920913   -4703.3851   -4664.0994   -4703.3851            0    2313.5328    17.859292    23.306498    21.850568    9095.0268    2405.5999    2241.3954    2293.6032    169.13522    26.952266   -200.34157   -4357.2286 
46435000    23.238675   -4698.8685   -4659.0383   -4698.8685            0     2293.298    17.884565    23.253504    21.865507    9093.4012    2526.7887    2289.5958    2063.5094   -129.40189   -310.92927    159.94985   -4354.9058 
46436000     22.66031   -4699.6465   -4660.8075   -4699.6465            0      1947.65    17.905657    23.366259    21.759757    9104.0264    1933.3759    1932.8993    1976.6749   -252.44295    130.52519    126.62621   -4402.2124 
46437000    21.275089   -4699.4233   -4662.9585   -4699.4233            0    2449.9262    17.839283    23.316835    21.849639    9088.4802    2508.7578    2177.1302    2663.8908   -177.09901   -145.45914    9.5417664   -4338.2302 
46438000    23.127032   -4698.2084   -4658.5695   -4698.2084            0    2158.1799    17.934281    23.206565     21.85869     9097.435    1933.4697    2305.8079    2235.2622   -23.206891     53.14526    177.03267   -4372.2292 
46439000    21.703714   -4701.2633   -4664.0639   -4701.2633            0     2163.557    17.885566    23.230849    21.891216    9095.7324    2415.7827    2262.0266    1812.8619   -3.0972729   -116.74558     178.1738   -4377.0638 
46440000    24.546983   -4700.8395   -4658.7668   -4700.8395            0    2110.4185    17.955957    23.172619     21.86891    9099.3595    2193.5498    2047.7614    2089.9443    100.56578     46.69399    109.35548   -4378.7041 
46441000    22.341041   -4698.9185   -4660.6267   -4698.9185            0    2263.1988    17.927751    23.246132    21.819206    9093.1727     1992.918    1980.8488    2815.8296    34.252652   -284.31011   -252.55415   -4360.4935 
46442000    22.836956   -4701.0667   -4661.9249   -4701.0667            0     2148.853    17.917322    23.278098    21.813797     9098.124    2168.6875    2138.8244    2139.0471    186.42098  -0.57755144    122.82069   -4376.8005 
46443000    22.483612   -4699.4886   -4660.9525   -4699.4886            0    2175.2801    17.875878    23.184084    21.946753    9095.5213    2159.2594    2500.7212    1865.8598    49.403655    4.4033608    33.482575   -4372.4041 
46444000    24.604294   -4702.2349    -4660.064   -4702.2349            0    2258.3662    17.912267    23.262933    21.838772     9100.039    2055.2621    2508.5991    2211.2375   -416.08209   -57.615676     271.1046   -4360.3455 
46445000    22.626356   -4701.0993   -4662.3185   -4701.0993            0     2134.162    17.914047    23.301919    21.816265    9106.8001    2043.3004    2020.5415    2338.6442    15.221231   -72.289681   -282.90634   -4378.8733 
46446000    22.141029   -4700.3623   -4662.4134   -4700.3623            0    2029.7226    17.857783    23.377925    21.799792    9100.9315    2234.5801    1393.1062    2461.4815   -171.75071   -227.04886    203.33765   -4393.0129 
46447000    22.357401   -4700.0259   -4661.7061   -4700.0259            0    2252.2335    17.984446    23.237793    21.778343    9101.5797    1969.6539    2311.7929    2475.2537    9.7686191    304.92466    81.730894   -4362.7509 
46448000    22.776176      -4700.2   -4661.1624      -4700.2            0     2086.117    17.855408    23.228393    21.952963    9105.0445    2090.0847    2237.3034     1930.963    615.15857   -21.687011    200.14288   -4384.1516 
46449000    24.113877   -4701.0846   -4659.7543   -4701.0846            0    2112.4231    17.891511    23.250725    21.893087    9107.3182    2282.7065    2090.8715    1963.6913   -234.04286     161.1715   -146.60282   -4379.1803 
46450000     22.36351   -4700.8449   -4662.5146   -4700.8449            0     2134.905    17.904308     23.28221    21.829973    9099.8646    2352.2048    2040.9455    2011.5646   -160.62679    87.215431    94.460332   -4379.1867 
46451000    22.001828   -4698.7681   -4661.0577   -4698.7681            0    2189.7247    17.875994    23.248106    21.885244    9095.1355    2239.9044    2325.1063    2004.1635    300.73391    106.12094    164.19169   -4370.6055 
46452000    22.225912   -4699.4284    -4661.334   -4699.4284            0    2396.6298    17.913055    23.198318    21.871695    9088.8432    2676.3417    2484.7821    2028.7656     75.14122   -165.74949   -156.96765   -4343.6572 
46453000    22.438753   -4701.2261   -4662.7669   -4701.2261            0    2154.9692    17.856979    23.319401    21.849239    9098.3303    2443.4873    2070.1862     1951.234    145.48125   -67.642093    238.94129   -4376.8244 
46454000    22.476942   -4702.5141   -4663.9894   -4702.5141            0     2006.761    17.894512    23.246498    21.886598    9104.4906    1947.8448    2031.3862    2041.0521    117.39028   -77.535577   -133.64164   -4397.5323 
46455000     22.26367   -4702.3873   -4664.2281   -4702.3873            0    2291.3803    17.872453    23.211329    21.915676    9091.5734    2570.6352    2473.9259    1829.5799    338.29437     129.2677    166.72293   -4360.4111 
46456000    22.807132   -4702.2179   -4663.1273   -4702.2179            0    2206.1389    17.899745    23.224867    21.872842      9092.96    2412.7803    2213.7652    1991.8711   -29.872214    187.43037    -11.02738   -4370.5679 
46457000     23.02279   -4702.3886   -4662.9283   -4702.3886            0    2122.7515    17.891834    23.270584    21.865381    9103.7263    2342.9378     1814.352    2210.9647    -518.0093   -190.32563    226.76312   -4381.0938 
46458000    23.376686   -4700.4836   -4660.4167   -4700.4836            0    2152.6488    17.870507    23.305985    21.850755     9100.616    2017.3066    2230.4094    2210.2305   -422.68521   -2.3108016   -94.967686   -4374.7104 
46459000    22.896824   -4700.4534    -4661.209   -4700.4534            0    2058.5231    17.888952    23.204989    21.945182    9109.7292    2302.8128     2470.406    1402.3506    -163.1606   -158.75491    389.03374   -4387.7217 
46460000    23.608401    -4700.458    -4659.994    -4700.458            0    2026.0693    17.888785    23.238242    21.900753    9104.2292    2125.8847    2343.0137    1609.3094   -130.35859    65.236732    213.72796   -4390.9809 
46461000    21.763473   -4699.7832   -4662.4813   -4699.7832            0    2280.9777    17.906948    23.293437    21.795321    9091.1414    2401.0462    2196.9407    2244.9462    116.37016   -62.590429    30.852613    -4360.058 
46462000    23.357363   -4701.0733   -4661.0395   -4701.0733            0     2247.746    17.837485    23.290203    21.877434    9088.7313    2425.1424    2098.4489    2219.6469   -327.09878   -120.56948    108.51821   -4363.1012 
46463000    22.523128   -4699.1621   -4660.5583   -4699.1621            0    2102.8439    17.826641    23.275689    21.925831    9097.6267    2045.2604    2476.7064    1786.5649    301.79234    120.81339   -137.46353   -4381.5539 
46464000    23.652907   -4702.6852   -4662.1449   -4702.6852            0    2242.7357    17.832205    23.294411    21.898292    9096.3468    2490.6247    1832.7035    2404.8789   -100.82624   -215.80708    44.172031   -4364.6216 
46465000    21.708626   -4704.0524   -4666.8445   -4704.0524            0    2088.2105    17.871747    23.251484    21.901632    9101.1058    2110.6257    1914.7158    2239.2901    170.18731    120.41396   -87.158314   -4389.6757 
46466000    23.086809   -4702.3611   -4662.7911   -4702.3611            0    2245.6152    17.862403    23.278069    21.868239    9092.8627    2271.0669    2281.3504    2184.4282   -61.328819   -323.54065     148.9568   -4364.9999 
46467000    21.148217   -4700.9557   -4664.7084   -4700.9557            0    2130.9751    17.861863     23.34788    21.820434    9099.9205     2368.997    1898.5416    2125.3866     15.42123   -7.2062763   -53.458701   -4381.9003 
46468000    22.699105   -4700.4588   -4661.5533   -4700.4588            0    2403.1961    17.916509    23.234317    21.834112    9089.0571    2142.9466    2799.6047     2267.037   -144.86214   -90.210398    162.32444   -4342.9987 
46469000    23.533328   -4701.1069   -4660.7716   -4701.1069            0    2205.2191    17.879884    23.269571    21.876697    9101.9579    2465.0967    2205.1239    1945.4368     91.17922    76.495144   -61.060074   -4368.0448 
46470000    22.734976   -4702.4051   -4663.4382   -4702.4051            0    2214.9023    17.839943    23.275397    21.889794    9089.3375    2393.8461    2167.6862    2083.1746   -100.71958   -222.08496    125.88256   -4369.8337 
46471000    23.009831   -4701.1923   -4661.7542   -4701.1923            0    2193.9041    17.952554    23.165936    21.859175    9090.9622    1981.9692    2342.2996    2257.4435    69.426701    51.047748    119.89064   -4370.8812 
46472000    22.225395   -4701.9336     -4663.84   -4701.9336            0    2110.9226    17.879778    23.330959    21.818739    9101.7384    1842.1274    1975.5721    2515.0684    4.5793587    155.63123    83.558473   -4383.6372 
46473000     22.04532   -4700.6568   -4662.8718   -4700.6568            0    2107.5877      17.9617    23.206976    21.841238    9104.2309     1672.226    2295.0486    2355.4885   -158.51043    68.039038     344.7233    -4383.035 
46474000    22.596229   -4700.9173   -4662.1881   -4700.9173            0    2248.8237    17.883069    23.254395     21.88082    9099.3569    2105.3704    2538.7363    2102.3644   -129.29124    35.115368   -119.23006   -4363.7584 
46475000    22.925039   -4702.5114   -4663.2186   -4702.5114            0    2176.8552    17.847375    23.315402    21.867216    9099.3578    2523.5734    2093.8474    1913.1446   -265.98042   -149.97532    315.43586   -4374.3395 
46476000    21.734869     -4699.14   -4661.8872     -4699.14            0    2395.8269    17.828252    23.300259    21.880514     9089.229    2640.6767     2164.992     2381.812   -68.870305    170.08689   -214.32509   -4344.3033 
46477000    24.320499   -4698.4838   -4656.7993   -4698.4838            0    2078.6705     17.89214    23.241321    21.887371    9101.5778    2034.3356    2179.4491    2022.2268   -356.17823   -111.44761    138.73986   -4380.8825 
46478000    24.352333   -4700.9742   -4659.2352   -4700.9742            0    2318.4486    17.911714    23.232606    21.834237    9086.0077    2050.9818    2290.9908    2613.3732   -187.22215    91.452702   -157.09706   -4352.0173 
46479000    23.792884    -4700.927   -4660.1468    -4700.927            0    2105.1695    17.859781    23.207285    21.967156    9104.8814    2214.7311    2182.0722    1918.7053    339.15565    -190.0931    419.77934   -4380.6111 
46480000    23.636604   -4699.2119   -4658.6995   -4699.2119            0    2437.3541    17.918906    23.213851    21.839682    9084.5828    2629.6601    2641.5227    2040.8793   -31.388788    241.01117   -3.9701936   -4335.7761 
46481000    23.911459   -4700.2807   -4659.2973   -4700.2807            0    2164.3364    17.856631    23.312865    21.861432    9100.6785    2186.9225    2286.1448     2019.942   -268.53527   -91.653739   -32.139396   -4372.0378 
46482000    22.179233   -4699.8904    -4661.876   -4699.8904            0    2040.7502    17.962121    23.228436    21.823224    9105.3468    1915.8674    2201.0291    2005.3541   -44.342378    234.47645    147.43107   -4390.8804 
46483000    21.733433   -4700.6039   -4663.3535   -4700.6039            0    2346.3947    17.928031    23.239326     21.81951    9090.7796    2066.5078     2293.239    2679.4373   -176.22987    -132.4616    -267.4711   -4352.2692 
46484000    24.599221   -4702.5951   -4660.4329   -4702.5951            0    2030.9043    17.938778    23.220168     21.86454    9107.4873    2063.3619    2015.2416    2014.1093   -194.21567     98.52556    118.90327   -4390.6814 
46485000    22.504177   -4701.8201   -4663.2487   -4701.8201            0    2239.9251      17.8667    23.208876    21.921203     9089.978     2226.391      2061.44    2431.9443   -285.76868   -139.84942    164.95427   -4366.3063 
46486000    22.936305   -4702.3296   -4663.0176   -4702.3296            0     2012.412    17.866436    23.313805    21.846562    9099.8488    1973.0467     2037.667    2026.5221    88.950554    38.638816    6.4171256   -4395.9465 
46487000    23.059432   -4701.0466   -4661.5235   -4701.0466            0    2321.6505    17.953769    23.210858    21.807096    9087.5051    2029.3427    2583.1113    2352.4977    119.13344    101.56773     20.09886   -4353.8307 
46488000    23.786316   -4701.6282   -4660.8593   -4701.6282            0    1922.5401    17.885105    23.189664    21.944455     9101.453    1826.4472    2395.0204    1546.1527   -44.067588    72.066735   -80.979717   -4405.6702 
46489000    23.741038   -4702.6597   -4661.9684   -4702.6597            0    2232.5081    17.896797     23.30976    21.798636    9093.7377    2185.2536    2254.1243    2258.1464   -244.45754   -132.39042   -33.237616   -4365.8869 
46490000    22.108566   -4698.7085   -4660.8151   -4698.7085            0    2032.7926    17.805029    23.341513    21.894437    9099.2477    2287.8944    2128.0696    1682.4139     83.25804    233.80788    160.87922   -4391.0571 
46491000    22.442428   -4702.9801   -4664.5146   -4702.9801            0    2290.6156    17.892972    23.236316    21.857862    9087.7723     2311.989    2336.9602    2222.8978   -213.04392   -199.75347    122.47228   -4360.9259 
46492000    22.300292   -4699.4609   -4661.2389   -4699.4609            0    2287.7485    17.850569    23.282131    21.872329     9090.124    2102.5661    2391.0979    2369.5815    -357.6415    20.660957    58.014691   -4357.9518 
46493000    22.813083   -4698.0794   -4658.9786   -4698.0794            0    1914.0006    17.939892    23.179903    21.887938    9101.9884    1422.0309    2114.4247    2205.5464     116.3069    144.38587     162.8955   -4404.9081 
46494000    23.175599   -4700.1113   -4660.3891   -4700.1113            0    2118.0379    17.923669    23.243088      21.8292    9094.0754    1834.4847    1969.8245    2549.8044   -260.21882   -83.530691   -61.784362   -4379.4785 
46495000    23.657746   -4698.2898   -4657.7412   -4698.2898            0    2239.3962    17.772995    23.293172    21.951378    9087.6384    2546.6537    1838.1884    2333.3465   -103.65479    200.04792    232.05423   -4360.9453 
46496000    22.650151   -4700.2369   -4661.4153   -4700.2369            0    2240.4952    17.891915    23.189366    21.905616    9088.6877    2574.5661    2057.0513    2089.8683    -215.8922   -202.05924    16.173836   -4364.4395 
46497000    22.514815   -4700.2161   -4661.6265   -4700.2161            0    2319.2949    17.814094    23.323412    21.868581    9086.0774    2697.7878    2070.6207    2189.4761   -148.79771    352.48296   -41.110185   -4354.2941 
46498000    23.983114   -4699.6507   -4658.5445   -4699.6507            0    2233.7226    17.791592    23.284659    21.939451    9088.8812    2478.5726    2138.8206    2083.7747    -397.4073   -287.94225    115.52619     -4362.46 
46499000    21.954135   -4701.0744   -4663.4458   -4701.0744            0    2161.0067    17.913378    23.249826    21.851576    9100.8083    1924.7152    1973.3938    2584.9109   -158.33786    62.070806   -28.090262   -4376.6241 
46500000    24.279132    -4700.215   -4658.6014    -4700.215            0     2089.374    17.812789     23.30018    21.927512    9100.8207    2422.8185    1636.0507    2209.2528   -44.855202   -203.87616    188.49396   -4381.2869 
Loop time of 356.482 on 64 procs for 250000 steps with 864 atoms

Performance: 121.184 ns/day, 0.198 hours/ns, 701.298 timesteps/s
193.1% CPU use with 32 MPI tasks x 2 OpenMP threads

MPI task timing breakdown:
Section |  min time  |  avg time  |  max time  |%varavg| %total
---------------------------------------------------------------
Pair    | 17.619     | 24.94      | 39.154     | 116.0 |  7.00
Bond    | 0.96357    | 1.2391     | 1.9317     |  17.6 |  0.35
Kspace  | 172.66     | 188        | 196.86     |  47.2 | 52.74
Neigh   | 0.090944   | 0.095435   | 0.10029    |   0.9 |  0.03
Comm    | 53.271     | 56.111     | 59.7       |  20.7 | 15.74
Output  | 0.48713    | 0.48745    | 0.48943    |   0.1 |  0.14
Modify  | 64.607     | 66.541     | 69.837     |  17.3 | 18.67
Other   |            | 19.07      |            |       |  5.35

Nlocal:        27.0000 ave          39 max          19 min
Histogram: 8 5 3 1 2 4 1 0 3 5
Nghost:        2167.12 ave        2279 max        2063 min
Histogram: 11 5 0 0 0 0 0 0 10 6
Neighs:        6680.28 ave        9517 max        4718 min
Histogram: 7 8 1 1 2 4 1 0 4 4

Total # of neighbors = 213769
Ave neighs/atom = 247.41782
Ave special neighs/atom = 2.0000000
Neighbor list builds = 250
Dangerous builds = 0

unfix		3
unfix		2
unfix		1

write_data	data.final.${pid} nocoeff
write_data	data.final.0 nocoeff
System init for write_data ...
PPPM initialization ...
  extracting TIP4P info from pair style
  using 12-bit tables for long-range coulomb (../kspace.cpp:340)
  G vector (1/distance) = 0.3721421
  grid = 24 27 25
  stencil order = 5
  estimated absolute RMS force accuracy = 0.0031140049
  estimated relative force accuracy = 9.3777333e-06
  using double precision FFTW3
  3d grid and FFT values/proc = 4410 672
Last active /omp style is kspace_style pppm/tip4p/omp

write_restart   restart.lmp.${pid}
write_restart   restart.lmp.0
System init for write_restart ...
PPPM initialization ...
  extracting TIP4P info from pair style
  using 12-bit tables for long-range coulomb (../kspace.cpp:340)
  G vector (1/distance) = 0.3721421
  grid = 24 27 25
  stencil order = 5
  estimated absolute RMS force accuracy = 0.0031140049
  estimated relative force accuracy = 9.3777333e-06
  using double precision FFTW3
  3d grid and FFT values/proc = 4410 672
Last active /omp style is kspace_style pppm/tip4p/omp
Total wall time: 0:05:56
